
     Program PWSCF v.6.6 starts on  7Oct2026 at 14: 7:28 

     This program is part of the open-source Quantum ESPRESSO suite
     for quantum simulation of materials; please cite
         "P. Giannozzi et al., J. Phys.:Condens. Matter 21 395502 (2009);
         "P. Giannozzi et al., J. Phys.:Condens. Matter 29 465901 (2017);
          URL http://www.quantum-espresso.org", 
     in publications or presentations arising from this work. More details at
     http://www.quantum-espresso.org/quote

     Parallel version (MPI), running on    40 processors

     MPI processes distributed on     1 nodes
     K-points division:     npool     =       4
     R & G space division:  proc/nbgrp/npool/nimage =      10
     Fft bands division:     nmany     =       1
     Reading input from vcrelax.in

     Current dimensions of program PWSCF are:
     Max number of different atomic species (ntypx) = 10
     Max number of k-points (npk) =  40000
     Max angular momentum in pseudopotentials (lmaxx) =  3
     file Pb.pbesol-dn-kjpaw_psl.0.2.2.UPF: wavefunction(s)  6S renormalized

     Subspace diagonalization in iterative solution of the eigenvalue problem:
     a serial algorithm will be used

     Message from routine setup:
     using ibrav=0 with symmetry is DISCOURAGED, use correct ibrav instead
 
     Parallelization info
     --------------------
     sticks:   dense  smooth     PW     G-vecs:    dense   smooth      PW
     Min        1020     509    137               110795    39157    5453
     Max        1023     510    138               110798    39160    5458
     Sum       10207    5097   1375              1107957   391591   54549
 


     bravais-lattice index     =            0
     lattice parameter (alat)  =      15.8314  a.u.
     unit-cell volume          =    6237.9978 (a.u.)^3
     number of atoms/cell      =           20
     number of atomic types    =            3
     number of electrons       =       176.00
     number of Kohn-Sham states=           88
     kinetic-energy cutoff     =      60.0000  Ry
     charge density cutoff     =     480.0000  Ry
     convergence threshold     =      1.0E-09
     mixing beta               =       0.3000
     number of iterations used =            8  plain     mixing
     Exchange-correlation= SLA PW PSX PSC
                           (   1   4  10   8   0   0   0)
     nstep                     =          300


     celldm(1)=  15.831351  celldm(2)=   0.000000  celldm(3)=   0.000000
     celldm(4)=   0.000000  celldm(5)=   0.000000  celldm(6)=   0.000000

     crystal axes: (cart. coord. in units of alat)
               a(1) = (   1.000000   0.000000   0.000000 )  
               a(2) = (   0.000000   1.066303   0.000000 )  
               a(3) = (   0.000000   0.000000   1.474385 )  

     reciprocal axes: (cart. coord. in units 2 pi/alat)
               b(1) = (  1.000000  0.000000  0.000000 )  
               b(2) = (  0.000000  0.937820  0.000000 )  
               b(3) = (  0.000000  0.000000  0.678249 )  


     PseudoPot. # 1 for Cs read from file:
     /public/home/daomduy/cspbi3/pseudo_pbesol/cs_pbesol_v1.uspp.F.UPF
     MD5 check sum: ae4559e5c840913b791237f814e2d884
     Pseudo is Ultrasoft + core correction, Zval =  9.0
     Generated by new atomic code, or converted to UPF format
     Using radial grid of  905 points,  6 beta functions with: 
                l(1) =   0
                l(2) =   0
                l(3) =   1
                l(4) =   1
                l(5) =   2
                l(6) =   2
     Q(r) pseudized with  6 coefficients,  rinner =    1.500   1.500   1.500
                                                       1.500   1.500

     PseudoPot. # 2 for Pb read from file:
     /public/home/daomduy/cspbi3/pseudo_pbesol/Pb.pbesol-dn-kjpaw_psl.0.2.2.UPF
     MD5 check sum: df0e0ac60519e244e20a4bf230ae894d
     Pseudo is Projector augmented-wave + core cor, Zval = 14.0
     Generated using "atomic" code by A. Dal Corso v.6.0 svn rev. 13079
     Shape of augmentation charge: PSQ
     Using radial grid of 1281 points,  6 beta functions with: 
                l(1) =   0
                l(2) =   0
                l(3) =   1
                l(4) =   1
                l(5) =   2
                l(6) =   2
     Q(r) pseudized with 0 coefficients 


     PseudoPot. # 3 for I  read from file:
     /public/home/daomduy/cspbi3/pseudo_pbesol/I.pbesol-n-kjpaw_psl.0.2.UPF
     MD5 check sum: cecf1a22a184a0b1ae701638a037a48d
     Pseudo is Projector augmented-wave + core cor, Zval =  7.0
     Generated using "atomic" code by A. Dal Corso v.6.0 svn rev. 13079
     Shape of augmentation charge: PSQ
     Using radial grid of 1247 points,  4 beta functions with: 
                l(1) =   0
                l(2) =   0
                l(3) =   1
                l(4) =   1
     Q(r) pseudized with 0 coefficients 


     atomic species   valence    mass     pseudopotential
        Cs             9.00   132.90500     Cs( 1.00)
        Pb            14.00   207.20000     Pb( 1.00)
        I              7.00   126.90400     I ( 1.00)

      8 Sym. Ops., with inversion, found ( 6 have fractional translation)



   Cartesian axes

     site n.     atom                  positions (alat units)
         1           Cs  tau(   1) = (      0.466639061095      0.444595791014      0.368596140498  )
         2           Cs  tau(   2) = (      0.533360938905      0.621706836646      1.105788421495  )
         3           Cs  tau(   3) = (     -0.033360938905      0.088555522816      1.105788421495  )
         4           Cs  tau(   4) = (      1.033360938905      0.977747104844      0.368596140498  )
         5           Pb  tau(   5) = (      0.500000000000      0.000000000000      0.000000000000  )
         6           Pb  tau(   6) = (      0.500000000000      0.000000000000      0.737192280997  )
         7           Pb  tau(   7) = (      0.000000000000      0.533151313830      0.000000000000  )
         8           Pb  tau(   8) = (      0.000000000000      0.533151313830      0.737192280997  )
         9           I   tau(   9) = (      0.586281073801      0.007905850574      0.368596140498  )
        10           I   tau(  10) = (      0.413718926199      1.058396777086      1.105788421495  )
        11           I   tau(  11) = (      0.086281073801      0.525245463256      1.105788421495  )
        12           I   tau(  12) = (      0.913718926199      0.541057164404      0.368596140498  )
        13           I   tau(  13) = (      0.687596176695      0.325633253297      1.414912636275  )
        14           I   tau(  14) = (      0.312403823305      0.740669374363      0.677720355278  )
        15           I   tau(  15) = (      0.187596176695      0.207518060533      0.059471925718  )
        16           I   tau(  16) = (      0.812403823305      0.858784567126      0.796664206715  )
        17           I   tau(  17) = (      0.312403823305      0.740669374363      0.059471925718  )
        18           I   tau(  18) = (      0.687596176695      0.325633253297      0.796664206715  )
        19           I   tau(  19) = (      0.812403823305      0.858784567126      1.414912636275  )
        20           I   tau(  20) = (      0.187596176695      0.207518060533      0.677720355278  )

     number of k points=    18
                       cart. coord. in units 2pi/alat
        k(    1) = (      0.000000000000      0.000000000000      0.000000000000), wk =      0.041666666667
        k(    2) = (      0.000000000000      0.000000000000      0.226083032830), wk =      0.083333333333
        k(    3) = (      0.000000000000      0.234455016348      0.000000000000), wk =      0.083333333333
        k(    4) = (      0.000000000000      0.234455016348      0.226083032830), wk =      0.166666666667
        k(    5) = (      0.000000000000     -0.468910032696      0.000000000000), wk =      0.041666666667
        k(    6) = (      0.000000000000     -0.468910032696      0.226083032830), wk =      0.083333333333
        k(    7) = (      0.250000000000      0.000000000000      0.000000000000), wk =      0.083333333333
        k(    8) = (      0.250000000000      0.000000000000      0.226083032830), wk =      0.166666666667
        k(    9) = (      0.250000000000      0.234455016348      0.000000000000), wk =      0.166666666667
        k(   10) = (      0.250000000000      0.234455016348      0.226083032830), wk =      0.333333333333
        k(   11) = (      0.250000000000     -0.468910032696      0.000000000000), wk =      0.083333333333
        k(   12) = (      0.250000000000     -0.468910032696      0.226083032830), wk =      0.166666666667
        k(   13) = (     -0.500000000000      0.000000000000      0.000000000000), wk =      0.041666666667
        k(   14) = (     -0.500000000000      0.000000000000      0.226083032830), wk =      0.083333333333
        k(   15) = (     -0.500000000000      0.234455016348      0.000000000000), wk =      0.083333333333
        k(   16) = (     -0.500000000000      0.234455016348      0.226083032830), wk =      0.166666666667
        k(   17) = (     -0.500000000000     -0.468910032696      0.000000000000), wk =      0.041666666667
        k(   18) = (     -0.500000000000     -0.468910032696      0.226083032830), wk =      0.083333333333

     Dense  grid:  1107957 G-vectors     FFT dimensions: ( 120, 120, 180)

     Smooth grid:   391591 G-vectors     FFT dimensions: (  80,  90, 120)

     Estimated max dynamical RAM per process >     231.87 MB

     Estimated total dynamical RAM >       9.06 GB

     Initial potential from superposition of free atoms

     starting charge  175.83973, renormalised to  176.00000
     Starting wfcs are  136 randomized atomic wfcs
     Checking if some PAW data can be deallocated... 

     total cpu time spent up to now is       29.3 secs

     Self-consistent Calculation

     iteration #  1     ecut=    60.00 Ry     beta= 0.30
     Davidson diagonalization with overlap
     ethr =  1.00E-02,  avg # of iterations =  1.7

     Threshold (ethr) on eigenvalues was too large:
     Diagonalizing with lowered threshold

     Davidson diagonalization with overlap
     ethr =  2.27E-04,  avg # of iterations =  4.9

     total cpu time spent up to now is       55.6 secs

     total energy              =   -8165.81495075 Ry
     estimated scf accuracy    <       0.35005333 Ry

     iteration #  2     ecut=    60.00 Ry     beta= 0.30
     Davidson diagonalization with overlap
     ethr =  1.99E-04,  avg # of iterations =  2.0

     total cpu time spent up to now is       69.5 secs

     total energy              =   -8165.83327820 Ry
     estimated scf accuracy    <       0.05787702 Ry

     iteration #  3     ecut=    60.00 Ry     beta= 0.30
     Davidson diagonalization with overlap
     ethr =  3.29E-05,  avg # of iterations =  4.1

     total cpu time spent up to now is       86.7 secs

     total energy              =   -8165.85771586 Ry
     estimated scf accuracy    <       0.00936545 Ry

     iteration #  4     ecut=    60.00 Ry     beta= 0.30
     Davidson diagonalization with overlap
     ethr =  5.32E-06,  avg # of iterations =  3.4

     total cpu time spent up to now is      101.9 secs

     total energy              =   -8165.85995157 Ry
     estimated scf accuracy    <       0.00250594 Ry

     iteration #  5     ecut=    60.00 Ry     beta= 0.30
     Davidson diagonalization with overlap
     ethr =  1.42E-06,  avg # of iterations =  4.1

     total cpu time spent up to now is      117.1 secs

     total energy              =   -8165.86034101 Ry
     estimated scf accuracy    <       0.00018527 Ry

     iteration #  6     ecut=    60.00 Ry     beta= 0.30
     Davidson diagonalization with overlap
     ethr =  1.05E-07,  avg # of iterations =  6.4

     total cpu time spent up to now is      139.6 secs

     total energy              =   -8165.86049132 Ry
     estimated scf accuracy    <       0.00007249 Ry

     iteration #  7     ecut=    60.00 Ry     beta= 0.30
     Davidson diagonalization with overlap
     ethr =  4.12E-08,  avg # of iterations =  3.7

     total cpu time spent up to now is      155.6 secs

     total energy              =   -8165.86051792 Ry
     estimated scf accuracy    <       0.00005288 Ry

     iteration #  8     ecut=    60.00 Ry     beta= 0.30
     Davidson diagonalization with overlap
     ethr =  3.00E-08,  avg # of iterations =  2.4

     total cpu time spent up to now is      170.4 secs

     total energy              =   -8165.86053125 Ry
     estimated scf accuracy    <       0.00000109 Ry

     iteration #  9     ecut=    60.00 Ry     beta= 0.30
     Davidson diagonalization with overlap
     ethr =  6.21E-10,  avg # of iterations =  7.4

     total cpu time spent up to now is      199.1 secs

     total energy              =   -8165.86053515 Ry
     estimated scf accuracy    <       0.00000299 Ry

     iteration # 10     ecut=    60.00 Ry     beta= 0.30
     Davidson diagonalization with overlap
     ethr =  6.21E-10,  avg # of iterations =  2.0

     total cpu time spent up to now is      212.4 secs

     total energy              =   -8165.86053565 Ry
     estimated scf accuracy    <       0.00000118 Ry

     iteration # 11     ecut=    60.00 Ry     beta= 0.30
     Davidson diagonalization with overlap
     ethr =  6.21E-10,  avg # of iterations =  4.1

     total cpu time spent up to now is      228.8 secs

     total energy              =   -8165.86053633 Ry
     estimated scf accuracy    <       0.00000002 Ry

     iteration # 12     ecut=    60.00 Ry     beta= 0.30
     Davidson diagonalization with overlap
     ethr =  1.09E-11,  avg # of iterations =  5.7

     total cpu time spent up to now is      248.1 secs

     total energy              =   -8165.86053654 Ry
     estimated scf accuracy    <          4.7E-09 Ry

     iteration # 13     ecut=    60.00 Ry     beta= 0.30
     Davidson diagonalization with overlap
     ethr =  2.68E-12,  avg # of iterations =  3.8

     total cpu time spent up to now is      264.2 secs

     End of self-consistent calculation

          k = 0.0000 0.0000 0.0000 ( 49019 PWs)   bands (ev):

   -17.2591 -17.2584 -17.2567 -17.2563 -13.0946 -13.0923 -13.0918 -13.0873
   -13.0807 -13.0734 -13.0712 -13.0711 -13.0388 -13.0387 -13.0383 -13.0381
   -13.0364 -13.0362 -13.0358 -13.0357 -13.0301 -13.0298 -13.0295 -13.0292
    -8.7805  -8.5905  -8.3269  -8.2882  -8.2814  -8.2632  -8.2615  -8.2429
    -8.2286  -8.0556  -8.0486  -8.0413  -4.9772  -4.4691  -4.1308  -4.1266
    -4.1228  -4.1206  -4.1176  -4.1128  -4.1081  -4.1034  -4.0939  -4.0721
    -4.0598  -4.0523  -3.9139  -3.4702  -0.0126   0.0294   0.0505   0.1806
     0.1888   0.2763   1.1030   1.3954   1.4060   1.4291   1.4431   1.4934
     1.7271   1.9084   1.9267   1.9279   2.0122   2.0218   2.0259   2.0578
     2.0654   2.0744   2.0993   2.1006   2.1572   2.3538   2.3749   2.4151
     2.4391   2.4416   2.4625   2.4912   2.6814   2.6944   2.9635   3.4141

          k = 0.0000 0.0000 0.2261 ( 48974 PWs)   bands (ev):

   -17.2589 -17.2586 -17.2566 -17.2564 -13.0920 -13.0919 -13.0911 -13.0841
   -13.0839 -13.0769 -13.0712 -13.0712 -13.0387 -13.0385 -13.0384 -13.0382
   -13.0364 -13.0363 -13.0358 -13.0357 -13.0301 -13.0299 -13.0294 -13.0293
    -8.7463  -8.6574  -8.3116  -8.2835  -8.2776  -8.2697  -8.2432  -8.2331
    -8.1997  -8.0925  -8.0515  -8.0444  -4.8586  -4.6040  -4.1309  -4.1299
    -4.1285  -4.1265  -4.1141  -4.1055  -4.0874  -4.0871  -4.0744  -4.0696
    -4.0690  -4.0617  -3.8551  -3.6245   0.0541   0.0833   0.0950   0.1538
     0.4198   0.6285   1.1022   1.1735   1.2858   1.4597   1.4699   1.5146
     1.5448   1.6654   1.8418   1.9256   1.9470   1.9750   2.0533   2.0632
     2.0834   2.1203   2.1583   2.1636   2.2543   2.2654   2.3187   2.3664
     2.4020   2.4090   2.4426   2.4608   2.6057   2.6695   2.9916   3.1400

          k = 0.0000 0.2345 0.0000 ( 49004 PWs)   bands (ev):

   -17.2587 -17.2581 -17.2571 -17.2566 -13.0936 -13.0903 -13.0889 -13.0873
   -13.0798 -13.0744 -13.0742 -13.0739 -13.0388 -13.0387 -13.0383 -13.0381
   -13.0363 -13.0362 -13.0359 -13.0357 -13.0301 -13.0297 -13.0296 -13.0293
    -8.7420  -8.5490  -8.4763  -8.3191  -8.2774  -8.2652  -8.2187  -8.2016
    -8.1703  -8.0847  -8.0689  -8.0564  -4.8478  -4.3685  -4.2307  -4.1350
    -4.1275  -4.1205  -4.1166  -4.1063  -4.0872  -4.0857  -4.0801  -4.0785
    -4.0708  -4.0340  -3.9958  -3.6377   0.0441   0.2052   0.2116   0.3093
     0.3754   0.4019   1.1708   1.2800   1.2808   1.3536   1.4313   1.4871
     1.4990   1.6021   1.7467   1.8661   1.9740   1.9753   2.0181   2.0417
     2.1134   2.1168   2.1649   2.1690   2.1839   2.2841   2.3294   2.3337
     2.3886   2.4055   2.4516   2.5096   2.6955   2.7217   2.7416   3.1286

          k = 0.0000 0.2345 0.2261 ( 48988 PWs)   bands (ev):

   -17.2586 -17.2582 -17.2570 -17.2567 -13.0901 -13.0893 -13.0890 -13.0847
   -13.0832 -13.0779 -13.0742 -13.0741 -13.0387 -13.0385 -13.0384 -13.0383
   -13.0363 -13.0362 -13.0359 -13.0358 -13.0300 -13.0298 -13.0295 -13.0294
    -8.7076  -8.6182  -8.4501  -8.3823  -8.2181  -8.2174  -8.2094  -8.1950
    -8.1814  -8.0970  -8.0807  -8.0726  -4.7350  -4.4930  -4.1591  -4.1302
    -4.1289  -4.1181  -4.1144  -4.1094  -4.0960  -4.0863  -4.0845  -4.0705
    -4.0664  -4.0535  -3.9703  -3.7799   0.2467   0.2707   0.3209   0.3466
     0.4914   0.5749   1.1286   1.2146   1.2580   1.3113   1.3258   1.4092
     1.5179   1.6049   1.6246   1.8234   1.8241   1.9361   1.9370   2.0243
     2.0369   2.1069   2.1161   2.1389   2.2656   2.3136   2.3540   2.3729
     2.3987   2.4047   2.4319   2.4794   2.6523   2.6918   2.7260   2.8796

          k = 0.0000-0.4689 0.0000 ( 48914 PWs)   bands (ev):

   -17.2579 -17.2579 -17.2573 -17.2573 -13.0913 -13.0913 -13.0820 -13.0820
   -13.0814 -13.0814 -13.0765 -13.0765 -13.0387 -13.0387 -13.0382 -13.0382
   -13.0361 -13.0361 -13.0360 -13.0360 -13.0298 -13.0298 -13.0295 -13.0295
    -8.6331  -8.6331  -8.4410  -8.4410  -8.2716  -8.2716  -8.1534  -8.1534
    -8.1356  -8.1356  -8.0901  -8.0901  -4.5342  -4.5342  -4.1677  -4.1677
    -4.1225  -4.1225  -4.0994  -4.0994  -4.0965  -4.0965  -4.0810  -4.0810
    -4.0617  -4.0617  -3.9312  -3.9312   0.1212   0.1212   0.6445   0.6445
     0.8303   0.8303   0.9118   0.9118   0.9934   0.9934   1.3212   1.3212
     1.6195   1.6195   1.7379   1.7379   1.8470   1.8470   2.0207   2.0207
     2.0913   2.0913   2.1253   2.1253   2.2220   2.2220   2.3393   2.3393
     2.3950   2.3950   2.4526   2.4526   2.6392   2.6392   2.8582   2.8582

          k = 0.0000-0.4689 0.2261 ( 48958 PWs)   bands (ev):

   -17.2578 -17.2578 -17.2575 -17.2575 -13.0879 -13.0879 -13.0826 -13.0826
   -13.0812 -13.0812 -13.0795 -13.0795 -13.0386 -13.0386 -13.0383 -13.0383
   -13.0361 -13.0361 -13.0360 -13.0360 -13.0298 -13.0298 -13.0296 -13.0296
    -8.6002  -8.6002  -8.5136  -8.5136  -8.2023  -8.2023  -8.1502  -8.1502
    -8.1395  -8.1395  -8.1186  -8.1186  -4.4310  -4.4310  -4.2269  -4.2269
    -4.1254  -4.1254  -4.1102  -4.1102  -4.0951  -4.0951  -4.0783  -4.0783
    -4.0584  -4.0584  -4.0040  -4.0040   0.4569   0.4569   0.6864   0.6864
     0.7658   0.7658   0.9258   0.9258   0.9676   0.9676   1.2240   1.2240
     1.6715   1.6715   1.7213   1.7213   1.7959   1.7959   1.8931   1.8931
     1.9416   1.9416   1.9802   1.9802   2.3220   2.3220   2.3876   2.3876
     2.3988   2.3988   2.4743   2.4743   2.6490   2.6490   2.7058   2.7058

          k = 0.2500 0.0000 0.0000 ( 48921 PWs)   bands (ev):

   -17.2588 -17.2582 -17.2569 -17.2565 -13.0936 -13.0903 -13.0889 -13.0873
   -13.0798 -13.0743 -13.0742 -13.0739 -13.0388 -13.0387 -13.0383 -13.0381
   -13.0363 -13.0362 -13.0359 -13.0357 -13.0301 -13.0297 -13.0296 -13.0293
    -8.7386  -8.5446  -8.4596  -8.2905  -8.2777  -8.2681  -8.2537  -8.2315
    -8.1566  -8.0891  -8.0743  -8.0561  -4.8457  -4.3606  -4.2066  -4.1267
    -4.1242  -4.1183  -4.1143  -4.1077  -4.1073  -4.0879  -4.0831  -4.0723
    -4.0640  -4.0411  -3.9919  -3.6409   0.0428   0.1850   0.2121   0.3201
     0.3341   0.4689   1.1407   1.1826   1.3123   1.3837   1.4975   1.5015
     1.5067   1.6116   1.8270   1.8511   1.9810   1.9893   2.0177   2.0352
     2.1167   2.1276   2.1752   2.2104   2.2174   2.2260   2.2395   2.3626
     2.3772   2.4071   2.4527   2.5051   2.6215   2.6820   2.7046   3.0488

          k = 0.2500 0.0000 0.2261 ( 48983 PWs)   bands (ev):

   -17.2587 -17.2584 -17.2568 -17.2566 -13.0901 -13.0893 -13.0890 -13.0847
   -13.0832 -13.0779 -13.0742 -13.0741 -13.0387 -13.0385 -13.0384 -13.0383
   -13.0363 -13.0362 -13.0359 -13.0358 -13.0300 -13.0298 -13.0295 -13.0294
    -8.7042  -8.6146  -8.4331  -8.3644  -8.2501  -8.2390  -8.2078  -8.1998
    -8.1685  -8.0971  -8.0847  -8.0773  -4.7320  -4.4871  -4.1416  -4.1342
    -4.1303  -4.1210  -4.1012  -4.0992  -4.0933  -4.0875  -4.0800  -4.0674
    -4.0644  -4.0617  -3.9768  -3.7874   0.2156   0.2610   0.3179   0.4139
     0.4751   0.5689   1.1046   1.1527   1.2172   1.3423   1.3877   1.3927
     1.5804   1.6208   1.6417   1.7971   1.9236   1.9418   2.0358   2.0365
     2.0631   2.0863   2.1522   2.1907   2.2496   2.2509   2.3101   2.3603
     2.3835   2.4005   2.4203   2.4735   2.5762   2.6008   2.6906   2.7733

          k = 0.2500 0.2345 0.0000 ( 48919 PWs)   bands (ev):

   -17.2585 -17.2580 -17.2572 -17.2568 -13.0941 -13.0905 -13.0878 -13.0851
   -13.0797 -13.0769 -13.0758 -13.0726 -13.0388 -13.0387 -13.0382 -13.0381
   -13.0363 -13.0361 -13.0360 -13.0358 -13.0300 -13.0297 -13.0297 -13.0293
    -8.7039  -8.5044  -8.5019  -8.2857  -8.2820  -8.2772  -8.2624  -8.2584
    -8.1460  -8.1070  -8.0963  -8.0357  -4.7440  -4.2959  -4.2885  -4.1240
    -4.1167  -4.1153  -4.1148  -4.1041  -4.0953  -4.0820  -4.0782  -4.0762
    -4.0729  -4.0240  -4.0129  -3.7305   0.0605   0.0997   0.1767   0.2454
     0.7057   0.8199   0.8555   1.0300   1.2589   1.2696   1.2945   1.5468
     1.5602   1.7074   1.7949   1.9152   1.9580   1.9731   2.0471   2.0654
     2.0687   2.1115   2.1323   2.1417   2.2189   2.2759   2.3211   2.3225
     2.3345   2.3603   2.4431   2.4724   2.6031   2.7108   2.7403   3.0496

          k = 0.2500 0.2345 0.2261 ( 48969 PWs)   bands (ev):

   -17.2584 -17.2581 -17.2571 -17.2569 -13.0913 -13.0883 -13.0874 -13.0841
   -13.0820 -13.0795 -13.0755 -13.0743 -13.0387 -13.0386 -13.0384 -13.0383
   -13.0362 -13.0361 -13.0359 -13.0358 -13.0299 -13.0297 -13.0296 -13.0294
    -8.6691  -8.5778  -8.4703  -8.3855  -8.2732  -8.2685  -8.2065  -8.1752
    -8.1512  -8.1160  -8.1018  -8.0652  -4.6354  -4.4032  -4.2090  -4.1249
    -4.1234  -4.1199  -4.1086  -4.0977  -4.0928  -4.0862  -4.0798  -4.0744
    -4.0666  -4.0459  -4.0138  -3.8657   0.1301   0.1920   0.4154   0.5248
     0.7559   0.7741   0.8959   0.9570   1.1326   1.2456   1.3089   1.3623
     1.5712   1.6811   1.7045   1.8085   1.8648   1.9098   1.9318   1.9657
     2.0730   2.1021   2.1804   2.2112   2.2568   2.3020   2.3184   2.3461
     2.3683   2.3802   2.4324   2.4517   2.5838   2.6123   2.6945   2.7976

          k = 0.2500-0.4689 0.0000 ( 48942 PWs)   bands (ev):

   -17.2579 -17.2579 -17.2573 -17.2573 -13.0928 -13.0928 -13.0843 -13.0843
   -13.0799 -13.0799 -13.0743 -13.0743 -13.0387 -13.0387 -13.0382 -13.0382
   -13.0361 -13.0361 -13.0360 -13.0360 -13.0298 -13.0298 -13.0295 -13.0295
    -8.6107  -8.6107  -8.4005  -8.4005  -8.2764  -8.2764  -8.2244  -8.2244
    -8.1844  -8.1844  -8.0442  -8.0442  -4.5104  -4.5104  -4.1507  -4.1507
    -4.1202  -4.1202  -4.1003  -4.1003  -4.0924  -4.0924  -4.0793  -4.0793
    -4.0665  -4.0665  -3.9098  -3.9098   0.1136   0.1136   0.3388   0.3388
     0.4838   0.4838   1.1629   1.1629   1.2411   1.2411   1.3580   1.3580
     1.6391   1.6391   1.8416   1.8416   1.9497   1.9497   2.0376   2.0376
     2.1162   2.1162   2.2085   2.2085   2.2133   2.2133   2.2676   2.2676
     2.3372   2.3372   2.3872   2.3872   2.6451   2.6451   2.8632   2.8632

          k = 0.2500-0.4689 0.2261 ( 48988 PWs)   bands (ev):

   -17.2578 -17.2578 -17.2575 -17.2575 -13.0899 -13.0899 -13.0855 -13.0855
   -13.0793 -13.0793 -13.0766 -13.0766 -13.0386 -13.0386 -13.0383 -13.0383
   -13.0361 -13.0361 -13.0360 -13.0360 -13.0297 -13.0297 -13.0296 -13.0296
    -8.5758  -8.5758  -8.4831  -8.4831  -8.2373  -8.2373  -8.2257  -8.2257
    -8.1454  -8.1454  -8.0728  -8.0728  -4.4105  -4.4105  -4.2150  -4.2150
    -4.1187  -4.1187  -4.1088  -4.1088  -4.0855  -4.0855  -4.0768  -4.0768
    -4.0562  -4.0562  -3.9936  -3.9936   0.3521   0.3521   0.4229   0.4229
     0.5094   0.5094   1.1587   1.1587   1.2075   1.2075   1.2334   1.2334
     1.5676   1.5676   1.7606   1.7606   1.8946   1.8946   1.9909   1.9909
     2.0828   2.0828   2.1167   2.1167   2.2977   2.2977   2.3347   2.3347
     2.3660   2.3660   2.4153   2.4153   2.6227   2.6227   2.6595   2.6595

          k =-0.5000 0.0000 0.0000 ( 48876 PWs)   bands (ev):

   -17.2583 -17.2583 -17.2569 -17.2569 -13.0913 -13.0913 -13.0820 -13.0820
   -13.0814 -13.0814 -13.0765 -13.0765 -13.0387 -13.0387 -13.0382 -13.0382
   -13.0361 -13.0361 -13.0360 -13.0360 -13.0298 -13.0298 -13.0295 -13.0295
    -8.6218  -8.6218  -8.4253  -8.4253  -8.2744  -8.2744  -8.1760  -8.1760
    -8.1536  -8.1536  -8.0845  -8.0845  -4.5245  -4.5245  -4.1647  -4.1647
    -4.1197  -4.1197  -4.0991  -4.0991  -4.0747  -4.0747  -4.0678  -4.0678
    -4.0523  -4.0523  -3.9610  -3.9610   0.1238   0.1238   0.5960   0.5960
     0.8064   0.8064   0.9247   0.9247   1.1222   1.1222   1.2676   1.2676
     1.5988   1.5988   1.8154   1.8154   1.9143   1.9143   2.0262   2.0262
     2.0563   2.0563   2.2118   2.2118   2.2214   2.2214   2.2817   2.2817
     2.3721   2.3721   2.4488   2.4488   2.5028   2.5028   2.7556   2.7556

          k =-0.5000 0.0000 0.2261 ( 48902 PWs)   bands (ev):

   -17.2582 -17.2582 -17.2570 -17.2570 -13.0879 -13.0879 -13.0826 -13.0826
   -13.0813 -13.0813 -13.0795 -13.0795 -13.0386 -13.0386 -13.0383 -13.0383
   -13.0361 -13.0361 -13.0360 -13.0360 -13.0298 -13.0298 -13.0296 -13.0296
    -8.5890  -8.5890  -8.5013  -8.5013  -8.2026  -8.2026  -8.1768  -8.1768
    -8.1524  -8.1524  -8.1133  -8.1133  -4.4186  -4.4186  -4.2101  -4.2101
    -4.1224  -4.1224  -4.1105  -4.1105  -4.0819  -4.0819  -4.0693  -4.0693
    -4.0497  -4.0497  -4.0361  -4.0361   0.4581   0.4581   0.6398   0.6398
     0.7477   0.7477   0.9430   0.9430   1.0352   1.0352   1.1701   1.1701
     1.6817   1.6817   1.8252   1.8252   1.8477   1.8477   1.9437   1.9437
     1.9575   1.9575   2.0851   2.0851   2.3068   2.3068   2.3306   2.3306
     2.3783   2.3783   2.4301   2.4301   2.5045   2.5045   2.5418   2.5418

          k =-0.5000 0.2345 0.0000 ( 48934 PWs)   bands (ev):

   -17.2581 -17.2581 -17.2571 -17.2571 -13.0928 -13.0928 -13.0843 -13.0843
   -13.0799 -13.0799 -13.0742 -13.0742 -13.0387 -13.0387 -13.0382 -13.0382
   -13.0361 -13.0361 -13.0360 -13.0360 -13.0298 -13.0298 -13.0295 -13.0295
    -8.6041  -8.6041  -8.3893  -8.3893  -8.2785  -8.2785  -8.2323  -8.2323
    -8.1968  -8.1968  -8.0449  -8.0449  -4.5053  -4.5053  -4.1527  -4.1527
    -4.1074  -4.1074  -4.1071  -4.1071  -4.0862  -4.0862  -4.0751  -4.0751
    -4.0590  -4.0590  -3.9217  -3.9217   0.1135   0.1135   0.3281   0.3281
     0.4938   0.4938   1.1201   1.1201   1.2505   1.2505   1.4278   1.4278
     1.6514   1.6514   1.8617   1.8617   1.9807   1.9807   2.0546   2.0546
     2.0813   2.0813   2.1889   2.1889   2.2025   2.2025   2.2590   2.2590
     2.3081   2.3081   2.3942   2.3942   2.6041   2.6041   2.8247   2.8247

          k =-0.5000 0.2345 0.2261 ( 48884 PWs)   bands (ev):

   -17.2581 -17.2581 -17.2572 -17.2572 -13.0899 -13.0899 -13.0855 -13.0855
   -13.0793 -13.0793 -13.0766 -13.0766 -13.0386 -13.0386 -13.0383 -13.0383
   -13.0361 -13.0361 -13.0360 -13.0360 -13.0297 -13.0297 -13.0296 -13.0296
    -8.5691  -8.5691  -8.4754  -8.4754  -8.2458  -8.2458  -8.2292  -8.2292
    -8.1517  -8.1517  -8.0743  -8.0743  -4.4043  -4.4043  -4.2081  -4.2081
    -4.1107  -4.1107  -4.1041  -4.1041  -4.0921  -4.0921  -4.0739  -4.0739
    -4.0498  -4.0498  -4.0068  -4.0068   0.3524   0.3524   0.4148   0.4148
     0.5090   0.5090   1.0972   1.0972   1.2359   1.2359   1.2734   1.2734
     1.5976   1.5976   1.7880   1.7880   1.9010   1.9010   2.0538   2.0538
     2.1076   2.1076   2.1551   2.1551   2.2577   2.2577   2.2828   2.2828
     2.3227   2.3227   2.4088   2.4088   2.5698   2.5698   2.5980   2.5980

          k =-0.5000-0.4689 0.0000 ( 48992 PWs)   bands (ev):

   -17.2579 -17.2579 -17.2573 -17.2573 -13.0939 -13.0939 -13.0858 -13.0858
   -13.0788 -13.0788 -13.0727 -13.0727 -13.0387 -13.0387 -13.0382 -13.0382
   -13.0361 -13.0361 -13.0359 -13.0359 -13.0298 -13.0298 -13.0295 -13.0295
    -8.5831  -8.5831  -8.3091  -8.3091  -8.2974  -8.2974  -8.2841  -8.2841
    -8.2610  -8.2610  -8.0217  -8.0217  -4.4863  -4.4863  -4.1349  -4.1349
    -4.1143  -4.1143  -4.1024  -4.1024  -4.0861  -4.0861  -4.0779  -4.0779
    -4.0737  -4.0737  -3.8890  -3.8890   0.1007   0.1007   0.1665   0.1665
     0.3217   0.3217   1.1670   1.1670   1.2938   1.2938   1.6242   1.6242
     1.6587   1.6587   1.9170   1.9170   1.9673   1.9673   2.0206   2.0206
     2.1181   2.1181   2.1718   2.1718   2.2097   2.2097   2.2281   2.2281
     2.2693   2.2693   2.4278   2.4278   2.6876   2.6876   2.9351   2.9351

          k =-0.5000-0.4689 0.2261 ( 48964 PWs)   bands (ev):

   -17.2577 -17.2577 -17.2575 -17.2575 -13.0913 -13.0913 -13.0871 -13.0871
   -13.0779 -13.0779 -13.0750 -13.0750 -13.0386 -13.0386 -13.0383 -13.0383
   -13.0361 -13.0361 -13.0360 -13.0360 -13.0297 -13.0297 -13.0296 -13.0296
    -8.5450  -8.5450  -8.4398  -8.4398  -8.2837  -8.2837  -8.2831  -8.2831
    -8.1495  -8.1495  -8.0545  -8.0545  -4.3901  -4.3901  -4.2042  -4.2042
    -4.1110  -4.1110  -4.1088  -4.1088  -4.0747  -4.0747  -4.0656  -4.0656
    -4.0643  -4.0643  -3.9818  -3.9818   0.1984   0.1984   0.2593   0.2593
     0.4842   0.4842   1.1834   1.1834   1.2335   1.2335   1.3465   1.3465
     1.6242   1.6242   1.7744   1.7744   2.0383   2.0383   2.0633   2.0633
     2.1313   2.1313   2.1322   2.1322   2.2205   2.2205   2.2286   2.2286
     2.3428   2.3428   2.4269   2.4269   2.6588   2.6588   2.7172   2.7172

     highest occupied level (ev):     3.4141

!    total energy              =   -8165.86053674 Ry
     estimated scf accuracy    <          6.1E-10 Ry

     The total energy is the sum of the following terms:
     one-electron contribution =    -324.91395228 Ry
     hartree contribution      =     251.21374629 Ry
     xc contribution           =    -792.77337377 Ry
     ewald contribution        =    -649.76807922 Ry
     one-center paw contrib.   =   -6649.61887776 Ry

     convergence has been achieved in  13 iterations

     Forces acting on atoms (cartesian axes, Ry/au):

     atom    1 type  1   force =     0.00023815   -0.00020923    0.00000000
     atom    2 type  1   force =    -0.00023815    0.00020923    0.00000000
     atom    3 type  1   force =     0.00023815    0.00020923    0.00000000
     atom    4 type  1   force =    -0.00023815   -0.00020923   -0.00000000
     atom    5 type  2   force =     0.00000000    0.00000000    0.00000000
     atom    6 type  2   force =     0.00000000   -0.00000000    0.00000000
     atom    7 type  2   force =     0.00000000    0.00000000    0.00000000
     atom    8 type  2   force =     0.00000000    0.00000000    0.00000000
     atom    9 type  3   force =    -0.00079016   -0.00019180   -0.00000000
     atom   10 type  3   force =     0.00079016    0.00019180    0.00000000
     atom   11 type  3   force =    -0.00079016    0.00019180    0.00000000
     atom   12 type  3   force =     0.00079016   -0.00019180   -0.00000000
     atom   13 type  3   force =     0.00009357    0.00000959   -0.00003021
     atom   14 type  3   force =    -0.00009357   -0.00000959   -0.00003021
     atom   15 type  3   force =     0.00009357   -0.00000959    0.00003021
     atom   16 type  3   force =    -0.00009357    0.00000959    0.00003021
     atom   17 type  3   force =    -0.00009357   -0.00000959    0.00003021
     atom   18 type  3   force =     0.00009357    0.00000959    0.00003021
     atom   19 type  3   force =    -0.00009357    0.00000959   -0.00003021
     atom   20 type  3   force =     0.00009357   -0.00000959   -0.00003021

     Total force =     0.001768     Total SCF correction =     0.000014


     Computing stress (Cartesian axis) and pressure

          total   stress  (Ry/bohr**3)                   (kbar)     P=       -0.08
  -0.00000074   0.00000000   0.00000000           -0.11        0.00        0.00
   0.00000000   0.00000236   0.00000000            0.00        0.35        0.00
   0.00000000   0.00000000  -0.00000329            0.00        0.00       -0.48


     BFGS Geometry Optimization

     number of scf cycles    =   1
     number of bfgs steps    =   0

     enthalpy new            =   -8165.8605367354 Ry

     new trust radius        =       0.0013005300 bohr
     new conv_thr            =       0.0000000010 Ry

     new unit-cell volume =   6237.73683 a.u.^3 (   924.33723 Ang^3 )
     density =      5.17969 g/cm^3

CELL_PARAMETERS (angstrom)
   8.377435783   0.000000000   0.000000000
   0.000000000   8.933573247   0.000000000
   0.000000000   0.000000000  12.350772919

ATOMIC_POSITIONS (angstrom)
Cs            3.9093647916        3.7247502650        3.0876932296
Cs            4.4680709909        5.2088229823        9.2630796889
Cs           -0.2793530996        0.7420363586        9.2630796889
Cs            8.6567888822        8.1915368887        3.0876932296
Pb            4.1887178913        0.0000000000        0.0000000000
Pb            4.1887178913       -0.0000000000        6.1753864593
Pb            0.0000000000        4.4667866237        0.0000000000
Pb            0.0000000000        4.4667866237        6.1753864593
I             4.9111139215        0.0661343823        3.0876932296
I             3.4663218611        8.8674388650        9.2630796889
I             0.7223960302        4.4006522413        9.2630796889
I             7.6550397524        4.5329210060        3.0876932296
I             5.7603423292        2.7281879038       11.8525665227
I             2.6170934534        6.2053853436        5.6771800634
I             1.5716244379        1.7385987199        0.4982063959
I             6.8058113447        7.1949745275        6.6735928551
I             2.6170934534        6.2053853436        0.4982063959
I             5.7603423292        2.7281879038        6.6735928551
I             6.8058113447        7.1949745275       11.8525665227
I             1.5716244379        1.7385987199        5.6771800634



     Writing output data file ./tmp/unit_tight.save/
     NEW-OLD atomic charge density approx. for the potential
     extrapolated charge  175.99264, renormalised to  176.00000

     total cpu time spent up to now is      353.7 secs

     Self-consistent Calculation

     iteration #  1     ecut=    60.00 Ry     beta= 0.30
     Davidson diagonalization with overlap
     ethr =  1.00E-06,  avg # of iterations =  2.0

     Threshold (ethr) on eigenvalues was too large:
     Diagonalizing with lowered threshold

     Davidson diagonalization with overlap
     ethr =  2.74E-10,  avg # of iterations =  6.7

     total cpu time spent up to now is      387.8 secs

     total energy              =   -8165.86054161 Ry
     estimated scf accuracy    <       0.00000101 Ry

     iteration #  2     ecut=    60.00 Ry     beta= 0.30
     Davidson diagonalization with overlap
     ethr =  5.73E-10,  avg # of iterations =  5.0

     total cpu time spent up to now is      407.9 secs

     total energy              =   -8165.86054238 Ry
     estimated scf accuracy    <       0.00000023 Ry

     iteration #  3     ecut=    60.00 Ry     beta= 0.30
     Davidson diagonalization with overlap
     ethr =  1.29E-10,  avg # of iterations =  1.2

     total cpu time spent up to now is      420.2 secs

     total energy              =   -8165.86054235 Ry
     estimated scf accuracy    <       0.00000012 Ry

     iteration #  4     ecut=    60.00 Ry     beta= 0.30
     Davidson diagonalization with overlap
     ethr =  6.60E-11,  avg # of iterations =  3.3

     total cpu time spent up to now is      434.9 secs

     total energy              =   -8165.86054237 Ry
     estimated scf accuracy    <          4.0E-09 Ry

     iteration #  5     ecut=    60.00 Ry     beta= 0.30
     Davidson diagonalization with overlap
     ethr =  2.29E-12,  avg # of iterations =  5.7

     total cpu time spent up to now is      455.2 secs

     total energy              =   -8165.86054238 Ry
     estimated scf accuracy    <          4.0E-09 Ry

     iteration #  6     ecut=    60.00 Ry     beta= 0.30
     Davidson diagonalization with overlap
     ethr =  2.25E-12,  avg # of iterations =  1.5

     total cpu time spent up to now is      467.7 secs

     total energy              =   -8165.86054238 Ry
     estimated scf accuracy    <          2.2E-09 Ry

     iteration #  7     ecut=    60.00 Ry     beta= 0.30
     Davidson diagonalization with overlap
     ethr =  1.25E-12,  avg # of iterations =  5.0

     total cpu time spent up to now is      487.7 secs

     total energy              =   -8165.86054238 Ry
     estimated scf accuracy    <          8.8E-09 Ry

     iteration #  8     ecut=    60.00 Ry     beta= 0.30
     Davidson diagonalization with overlap
     ethr =  1.25E-12,  avg # of iterations =  1.1

     total cpu time spent up to now is      499.9 secs

     total energy              =   -8165.86054238 Ry
     estimated scf accuracy    <          9.5E-09 Ry

     iteration #  9     ecut=    60.00 Ry     beta= 0.30
     Davidson diagonalization with overlap
     ethr =  1.25E-12,  avg # of iterations =  2.8

     total cpu time spent up to now is      514.2 secs

     total energy              =   -8165.86054238 Ry
     estimated scf accuracy    <          2.6E-09 Ry

     iteration # 10     ecut=    60.00 Ry     beta= 0.30
     Davidson diagonalization with overlap
     ethr =  1.25E-12,  avg # of iterations =  1.0

     total cpu time spent up to now is      526.2 secs

     total energy              =   -8165.86054238 Ry
     estimated scf accuracy    <          1.4E-09 Ry

     iteration # 11     ecut=    60.00 Ry     beta= 0.30
     Davidson diagonalization with overlap
     ethr =  7.73E-13,  avg # of iterations =  2.0

     total cpu time spent up to now is      539.0 secs

     End of self-consistent calculation

          k = 0.0000 0.0000 0.0000 ( 49019 PWs)   bands (ev):

   -17.2587 -17.2580 -17.2564 -17.2559 -13.0940 -13.0917 -13.0912 -13.0867
   -13.0801 -13.0728 -13.0706 -13.0705 -13.0382 -13.0380 -13.0377 -13.0375
   -13.0358 -13.0356 -13.0352 -13.0350 -13.0295 -13.0292 -13.0289 -13.0286
    -8.7804  -8.5900  -8.3270  -8.2878  -8.2815  -8.2627  -8.2617  -8.2425
    -8.2281  -8.0552  -8.0483  -8.0409  -4.9769  -4.4683  -4.1304  -4.1262
    -4.1225  -4.1203  -4.1172  -4.1125  -4.1077  -4.1030  -4.0936  -4.0717
    -4.0595  -4.0519  -3.9137  -3.4696  -0.0128   0.0297   0.0510   0.1812
     0.1890   0.2757   1.1034   1.3958   1.4066   1.4292   1.4432   1.4937
     1.7271   1.9089   1.9272   1.9279   2.0125   2.0223   2.0259   2.0582
     2.0657   2.0745   2.0997   2.1008   2.1574   2.3542   2.3754   2.4155
     2.4393   2.4420   2.4630   2.4916   2.6822   2.6948   2.9637   3.4148

          k = 0.0000 0.0000 0.2261 ( 48974 PWs)   bands (ev):

   -17.2585 -17.2582 -17.2563 -17.2561 -13.0914 -13.0913 -13.0905 -13.0836
   -13.0834 -13.0764 -13.0706 -13.0705 -13.0381 -13.0379 -13.0378 -13.0376
   -13.0358 -13.0357 -13.0352 -13.0351 -13.0294 -13.0293 -13.0288 -13.0286
    -8.7461  -8.6571  -8.3117  -8.2833  -8.2776  -8.2693  -8.2427  -8.2326
    -8.1997  -8.0923  -8.0511  -8.0439  -4.8582  -4.6033  -4.1305  -4.1296
    -4.1282  -4.1261  -4.1137  -4.1051  -4.0870  -4.0868  -4.0740  -4.0692
    -4.0686  -4.0613  -3.8550  -3.6241   0.0545   0.0837   0.0954   0.1544
     0.4197   0.6282   1.1027   1.1739   1.2862   1.4599   1.4700   1.5147
     1.5450   1.6656   1.8422   1.9261   1.9471   1.9753   2.0536   2.0635
     2.0835   2.1206   2.1586   2.1638   2.2547   2.2657   2.3190   2.3668
     2.4021   2.4094   2.4431   2.4612   2.6062   2.6700   2.9918   3.1403

          k = 0.0000 0.2344 0.0000 ( 49004 PWs)   bands (ev):

   -17.2584 -17.2577 -17.2567 -17.2562 -13.0931 -13.0897 -13.0883 -13.0867
   -13.0792 -13.0738 -13.0736 -13.0733 -13.0382 -13.0381 -13.0376 -13.0375
   -13.0357 -13.0356 -13.0353 -13.0351 -13.0294 -13.0291 -13.0290 -13.0287
    -8.7418  -8.5485  -8.4762  -8.3186  -8.2775  -8.2654  -8.2182  -8.2012
    -8.1701  -8.0842  -8.0684  -8.0562  -4.8476  -4.3678  -4.2305  -4.1346
    -4.1272  -4.1202  -4.1162  -4.1059  -4.0869  -4.0854  -4.0797  -4.0781
    -4.0704  -4.0336  -3.9955  -3.6370   0.0437   0.2048   0.2121   0.3096
     0.3758   0.4022   1.1712   1.2802   1.2809   1.3540   1.4318   1.4872
     1.4995   1.6023   1.7470   1.8661   1.9746   1.9756   2.0185   2.0422
     2.1137   2.1171   2.1651   2.1691   2.1843   2.2842   2.3298   2.3342
     2.3890   2.4059   2.4521   2.5100   2.6959   2.7221   2.7424   3.1295

          k = 0.0000 0.2344 0.2261 ( 48988 PWs)   bands (ev):

   -17.2582 -17.2579 -17.2566 -17.2564 -13.0896 -13.0887 -13.0883 -13.0841
   -13.0826 -13.0773 -13.0736 -13.0735 -13.0381 -13.0379 -13.0378 -13.0376
   -13.0357 -13.0356 -13.0353 -13.0352 -13.0294 -13.0292 -13.0289 -13.0287
    -8.7075  -8.6179  -8.4500  -8.3821  -8.2180  -8.2170  -8.2090  -8.1949
    -8.1813  -8.0968  -8.0802  -8.0722  -4.7347  -4.4924  -4.1588  -4.1298
    -4.1285  -4.1177  -4.1140  -4.1091  -4.0957  -4.0860  -4.0842  -4.0701
    -4.0660  -4.0531  -3.9701  -3.7794   0.2471   0.2708   0.3215   0.3469
     0.4914   0.5746   1.1289   1.2149   1.2583   1.3115   1.3261   1.4095
     1.5182   1.6051   1.6248   1.8238   1.8242   1.9363   1.9374   2.0245
     2.0371   2.1072   2.1164   2.1392   2.2660   2.3139   2.3544   2.3731
     2.3991   2.4049   2.4323   2.4798   2.6527   2.6922   2.7264   2.8800

          k = 0.0000-0.4689 0.0000 ( 48914 PWs)   bands (ev):

   -17.2575 -17.2575 -17.2570 -17.2570 -13.0908 -13.0908 -13.0813 -13.0813
   -13.0808 -13.0808 -13.0760 -13.0760 -13.0381 -13.0381 -13.0376 -13.0376
   -13.0355 -13.0355 -13.0354 -13.0354 -13.0292 -13.0292 -13.0289 -13.0289
    -8.6330  -8.6330  -8.4405  -8.4405  -8.2717  -8.2717  -8.1529  -8.1529
    -8.1352  -8.1352  -8.0899  -8.0899  -4.5340  -4.5340  -4.1672  -4.1672
    -4.1221  -4.1221  -4.0990  -4.0990  -4.0961  -4.0961  -4.0807  -4.0807
    -4.0613  -4.0613  -3.9306  -3.9306   0.1207   0.1207   0.6448   0.6448
     0.8308   0.8308   0.9120   0.9120   0.9938   0.9938   1.3214   1.3214
     1.6195   1.6195   1.7381   1.7381   1.8473   1.8473   2.0210   2.0210
     2.0917   2.0917   2.1257   2.1257   2.2224   2.2224   2.3398   2.3398
     2.3952   2.3952   2.4530   2.4530   2.6396   2.6396   2.8590   2.8590

          k = 0.0000-0.4689 0.2261 ( 48958 PWs)   bands (ev):

   -17.2574 -17.2574 -17.2571 -17.2571 -13.0873 -13.0873 -13.0820 -13.0820
   -13.0806 -13.0806 -13.0789 -13.0789 -13.0380 -13.0380 -13.0377 -13.0377
   -13.0355 -13.0355 -13.0354 -13.0354 -13.0291 -13.0291 -13.0290 -13.0290
    -8.6001  -8.6001  -8.5133  -8.5133  -8.2022  -8.2022  -8.1498  -8.1498
    -8.1390  -8.1390  -8.1184  -8.1184  -4.4307  -4.4307  -4.2264  -4.2264
    -4.1250  -4.1250  -4.1098  -4.1098  -4.0948  -4.0948  -4.0779  -4.0779
    -4.0581  -4.0581  -4.0036  -4.0036   0.4567   0.4567   0.6867   0.6867
     0.7662   0.7662   0.9262   0.9262   0.9678   0.9678   1.2243   1.2243
     1.6717   1.6717   1.7215   1.7215   1.7961   1.7961   1.8934   1.8934
     1.9420   1.9420   1.9805   1.9805   2.3224   2.3224   2.3880   2.3880
     2.3991   2.3991   2.4746   2.4746   2.6495   2.6495   2.7063   2.7063

          k = 0.2500 0.0000 0.0000 ( 48921 PWs)   bands (ev):

   -17.2584 -17.2579 -17.2565 -17.2562 -13.0930 -13.0897 -13.0883 -13.0867
   -13.0792 -13.0738 -13.0736 -13.0733 -13.0382 -13.0381 -13.0376 -13.0375
   -13.0357 -13.0356 -13.0353 -13.0351 -13.0294 -13.0291 -13.0290 -13.0287
    -8.7384  -8.5441  -8.4595  -8.2900  -8.2778  -8.2682  -8.2533  -8.2310
    -8.1564  -8.0886  -8.0739  -8.0559  -4.8455  -4.3598  -4.2065  -4.1264
    -4.1239  -4.1180  -4.1139  -4.1073  -4.1069  -4.0876  -4.0827  -4.0719
    -4.0637  -4.0407  -3.9916  -3.6403   0.0424   0.1853   0.2116   0.3204
     0.3346   0.4694   1.1409   1.1830   1.3126   1.3838   1.4980   1.5019
     1.5068   1.6118   1.8274   1.8512   1.9815   1.9897   2.0182   2.0354
     2.1171   2.1278   2.1755   2.2105   2.2177   2.2263   2.2399   2.3631
     2.3775   2.4074   2.4529   2.5055   2.6218   2.6823   2.7053   3.0495

          k = 0.2500 0.0000 0.2261 ( 48983 PWs)   bands (ev):

   -17.2583 -17.2580 -17.2565 -17.2563 -13.0896 -13.0887 -13.0884 -13.0841
   -13.0826 -13.0773 -13.0736 -13.0735 -13.0381 -13.0379 -13.0378 -13.0376
   -13.0357 -13.0356 -13.0353 -13.0352 -13.0294 -13.0292 -13.0289 -13.0287
    -8.7041  -8.6142  -8.4330  -8.3642  -8.2497  -8.2386  -8.2076  -8.1997
    -8.1683  -8.0969  -8.0843  -8.0768  -4.7317  -4.4865  -4.1413  -4.1339
    -4.1299  -4.1206  -4.1008  -4.0989  -4.0929  -4.0872  -4.0796  -4.0670
    -4.0640  -4.0613  -3.9766  -3.7870   0.2160   0.2613   0.3182   0.4145
     0.4752   0.5686   1.1050   1.1530   1.2175   1.3426   1.3880   1.3930
     1.5807   1.6211   1.6420   1.7973   1.9239   1.9420   2.0361   2.0369
     2.0635   2.0865   2.1526   2.1910   2.2497   2.2512   2.3105   2.3607
     2.3839   2.4008   2.4207   2.4739   2.5766   2.6011   2.6909   2.7737

          k = 0.2500 0.2344 0.0000 ( 48919 PWs)   bands (ev):

   -17.2582 -17.2576 -17.2568 -17.2564 -13.0935 -13.0899 -13.0872 -13.0845
   -13.0791 -13.0763 -13.0751 -13.0720 -13.0382 -13.0381 -13.0376 -13.0375
   -13.0357 -13.0355 -13.0354 -13.0352 -13.0294 -13.0290 -13.0290 -13.0287
    -8.7037  -8.5039  -8.5019  -8.2853  -8.2818  -8.2773  -8.2624  -8.2579
    -8.1456  -8.1065  -8.0961  -8.0354  -4.7438  -4.2958  -4.2878  -4.1236
    -4.1163  -4.1149  -4.1144  -4.1037  -4.0950  -4.0817  -4.0779  -4.0759
    -4.0726  -4.0237  -4.0124  -3.7299   0.0601   0.1000   0.1761   0.2459
     0.7060   0.8201   0.8559   1.0304   1.2592   1.2698   1.2947   1.5470
     1.5606   1.7075   1.7952   1.9156   1.9583   1.9736   2.0475   2.0655
     2.0692   2.1119   2.1326   2.1420   2.2191   2.2763   2.3214   2.3229
     2.3349   2.3606   2.4434   2.4728   2.6035   2.7111   2.7411   3.0504

          k = 0.2500 0.2344 0.2261 ( 48969 PWs)   bands (ev):

   -17.2580 -17.2577 -17.2567 -17.2565 -13.0907 -13.0877 -13.0869 -13.0835
   -13.0814 -13.0789 -13.0749 -13.0737 -13.0381 -13.0380 -13.0378 -13.0377
   -13.0356 -13.0355 -13.0353 -13.0352 -13.0293 -13.0291 -13.0290 -13.0288
    -8.6689  -8.5775  -8.4703  -8.3854  -8.2728  -8.2681  -8.2064  -8.1750
    -8.1508  -8.1158  -8.1014  -8.0649  -4.6351  -4.4026  -4.2087  -4.1246
    -4.1230  -4.1195  -4.1082  -4.0973  -4.0924  -4.0858  -4.0794  -4.0741
    -4.0662  -4.0455  -4.0135  -3.8653   0.1305   0.1925   0.4153   0.5246
     0.7562   0.7744   0.8962   0.9574   1.1330   1.2459   1.3092   1.3626
     1.5716   1.6812   1.7048   1.8086   1.8651   1.9102   1.9321   1.9661
     2.0733   2.1023   2.1807   2.2115   2.2571   2.3023   2.3188   2.3464
     2.3687   2.3807   2.4328   2.4521   2.5842   2.6127   2.6948   2.7980

          k = 0.2500-0.4689 0.0000 ( 48942 PWs)   bands (ev):

   -17.2575 -17.2575 -17.2570 -17.2570 -13.0922 -13.0922 -13.0837 -13.0837
   -13.0793 -13.0793 -13.0737 -13.0737 -13.0381 -13.0381 -13.0376 -13.0376
   -13.0355 -13.0355 -13.0353 -13.0353 -13.0292 -13.0292 -13.0289 -13.0289
    -8.6106  -8.6106  -8.4001  -8.4001  -8.2765  -8.2765  -8.2240  -8.2240
    -8.1840  -8.1840  -8.0439  -8.0439  -4.5103  -4.5103  -4.1503  -4.1503
    -4.1198  -4.1198  -4.0999  -4.0999  -4.0920  -4.0920  -4.0790  -4.0790
    -4.0661  -4.0661  -3.9092  -3.9092   0.1131   0.1131   0.3391   0.3391
     0.4843   0.4843   1.1631   1.1631   1.2413   1.2413   1.3584   1.3584
     1.6393   1.6393   1.8419   1.8419   1.9502   1.9502   2.0378   2.0378
     2.1165   2.1165   2.2088   2.2088   2.2137   2.2137   2.2680   2.2680
     2.3375   2.3375   2.3876   2.3876   2.6455   2.6455   2.8640   2.8640

          k = 0.2500-0.4689 0.2261 ( 48988 PWs)   bands (ev):

   -17.2574 -17.2574 -17.2571 -17.2571 -13.0893 -13.0893 -13.0849 -13.0849
   -13.0787 -13.0787 -13.0760 -13.0760 -13.0380 -13.0380 -13.0377 -13.0377
   -13.0355 -13.0355 -13.0354 -13.0354 -13.0291 -13.0291 -13.0290 -13.0290
    -8.5757  -8.5757  -8.4829  -8.4829  -8.2370  -8.2370  -8.2253  -8.2253
    -8.1451  -8.1451  -8.0726  -8.0726  -4.4103  -4.4103  -4.2146  -4.2146
    -4.1183  -4.1183  -4.1084  -4.1084  -4.0851  -4.0851  -4.0764  -4.0764
    -4.0558  -4.0558  -3.9932  -3.9932   0.3524   0.3524   0.4231   0.4231
     0.5095   0.5095   1.1590   1.1590   1.2077   1.2077   1.2337   1.2337
     1.5679   1.5679   1.7609   1.7609   1.8948   1.8948   1.9912   1.9912
     2.0831   2.0831   2.1170   2.1170   2.2981   2.2981   2.3350   2.3350
     2.3664   2.3664   2.4156   2.4156   2.6231   2.6231   2.6600   2.6600

          k =-0.5000 0.0000 0.0000 ( 48876 PWs)   bands (ev):

   -17.2579 -17.2579 -17.2566 -17.2566 -13.0908 -13.0908 -13.0814 -13.0814
   -13.0808 -13.0808 -13.0759 -13.0759 -13.0381 -13.0381 -13.0376 -13.0376
   -13.0355 -13.0355 -13.0353 -13.0353 -13.0292 -13.0292 -13.0289 -13.0289
    -8.6217  -8.6217  -8.4248  -8.4248  -8.2745  -8.2745  -8.1755  -8.1755
    -8.1532  -8.1532  -8.0842  -8.0842  -4.5244  -4.5244  -4.1642  -4.1642
    -4.1193  -4.1193  -4.0987  -4.0987  -4.0744  -4.0744  -4.0674  -4.0674
    -4.0519  -4.0519  -3.9604  -3.9604   0.1233   0.1233   0.5963   0.5963
     0.8069   0.8069   0.9249   0.9249   1.1226   1.1226   1.2678   1.2678
     1.5990   1.5990   1.8158   1.8158   1.9148   1.9148   2.0267   2.0267
     2.0568   2.0568   2.2121   2.2121   2.2218   2.2218   2.2820   2.2820
     2.3723   2.3723   2.4491   2.4491   2.5031   2.5031   2.7564   2.7564

          k =-0.5000 0.0000 0.2261 ( 48902 PWs)   bands (ev):

   -17.2579 -17.2579 -17.2566 -17.2566 -13.0873 -13.0873 -13.0820 -13.0820
   -13.0806 -13.0806 -13.0789 -13.0789 -13.0380 -13.0380 -13.0377 -13.0377
   -13.0355 -13.0355 -13.0354 -13.0354 -13.0291 -13.0291 -13.0290 -13.0290
    -8.5888  -8.5888  -8.5010  -8.5010  -8.2025  -8.2025  -8.1764  -8.1764
    -8.1520  -8.1520  -8.1130  -8.1130  -4.4183  -4.4183  -4.2096  -4.2096
    -4.1220  -4.1220  -4.1101  -4.1101  -4.0816  -4.0816  -4.0689  -4.0689
    -4.0493  -4.0493  -4.0357  -4.0357   0.4580   0.4580   0.6401   0.6401
     0.7481   0.7481   0.9431   0.9431   1.0355   1.0355   1.1704   1.1704
     1.6819   1.6819   1.8256   1.8256   1.8480   1.8480   1.9442   1.9442
     1.9580   1.9580   2.0854   2.0854   2.3071   2.3071   2.3309   2.3309
     2.3785   2.3785   2.4304   2.4304   2.5048   2.5048   2.5422   2.5422

          k =-0.5000 0.2344 0.0000 ( 48934 PWs)   bands (ev):

   -17.2577 -17.2577 -17.2567 -17.2567 -13.0922 -13.0922 -13.0837 -13.0837
   -13.0793 -13.0793 -13.0737 -13.0737 -13.0381 -13.0381 -13.0376 -13.0376
   -13.0355 -13.0355 -13.0353 -13.0353 -13.0292 -13.0292 -13.0289 -13.0289
    -8.6040  -8.6040  -8.3888  -8.3888  -8.2786  -8.2786  -8.2319  -8.2319
    -8.1964  -8.1964  -8.0447  -8.0447  -4.5051  -4.5051  -4.1522  -4.1522
    -4.1070  -4.1070  -4.1067  -4.1067  -4.0858  -4.0858  -4.0747  -4.0747
    -4.0587  -4.0587  -3.9211  -3.9211   0.1130   0.1130   0.3284   0.3284
     0.4943   0.4943   1.1203   1.1203   1.2507   1.2507   1.4282   1.4282
     1.6516   1.6516   1.8620   1.8620   1.9811   1.9811   2.0551   2.0551
     2.0816   2.0816   2.1891   2.1891   2.2029   2.2029   2.2593   2.2593
     2.3084   2.3084   2.3945   2.3945   2.6044   2.6044   2.8256   2.8256

          k =-0.5000 0.2344 0.2261 ( 48884 PWs)   bands (ev):

   -17.2577 -17.2577 -17.2568 -17.2568 -13.0893 -13.0893 -13.0849 -13.0849
   -13.0787 -13.0787 -13.0760 -13.0760 -13.0380 -13.0380 -13.0377 -13.0377
   -13.0355 -13.0355 -13.0354 -13.0354 -13.0291 -13.0291 -13.0290 -13.0290
    -8.5690  -8.5690  -8.4752  -8.4752  -8.2454  -8.2454  -8.2288  -8.2288
    -8.1514  -8.1514  -8.0740  -8.0740  -4.4040  -4.4040  -4.2076  -4.2076
    -4.1104  -4.1104  -4.1037  -4.1037  -4.0918  -4.0918  -4.0735  -4.0735
    -4.0494  -4.0494  -4.0064  -4.0064   0.3527   0.3527   0.4150   0.4150
     0.5091   0.5091   1.0975   1.0975   1.2361   1.2361   1.2736   1.2736
     1.5979   1.5979   1.7883   1.7883   1.9013   1.9013   2.0541   2.0541
     2.1080   2.1080   2.1554   2.1554   2.2580   2.2580   2.2831   2.2831
     2.3230   2.3230   2.4091   2.4091   2.5702   2.5702   2.5984   2.5984

          k =-0.5000-0.4689 0.0000 ( 48992 PWs)   bands (ev):

   -17.2575 -17.2575 -17.2570 -17.2570 -13.0934 -13.0934 -13.0852 -13.0852
   -13.0782 -13.0782 -13.0722 -13.0722 -13.0381 -13.0381 -13.0376 -13.0376
   -13.0355 -13.0355 -13.0353 -13.0353 -13.0292 -13.0292 -13.0289 -13.0289
    -8.5830  -8.5830  -8.3087  -8.3087  -8.2972  -8.2972  -8.2837  -8.2837
    -8.2609  -8.2609  -8.0214  -8.0214  -4.4862  -4.4862  -4.1344  -4.1344
    -4.1139  -4.1139  -4.1020  -4.1020  -4.0857  -4.0857  -4.0775  -4.0775
    -4.0733  -4.0733  -3.8884  -3.8884   0.1002   0.1002   0.1668   0.1668
     0.3222   0.3222   1.1671   1.1671   1.2940   1.2940   1.6246   1.6246
     1.6591   1.6591   1.9175   1.9175   1.9673   1.9673   2.0210   2.0210
     2.1186   2.1186   2.1721   2.1721   2.2100   2.2100   2.2285   2.2285
     2.2695   2.2695   2.4281   2.4281   2.6880   2.6880   2.9360   2.9360

          k =-0.5000-0.4689 0.2261 ( 48964 PWs)   bands (ev):

   -17.2574 -17.2574 -17.2571 -17.2571 -13.0907 -13.0907 -13.0865 -13.0865
   -13.0773 -13.0773 -13.0744 -13.0744 -13.0380 -13.0380 -13.0377 -13.0377
   -13.0355 -13.0355 -13.0354 -13.0354 -13.0291 -13.0291 -13.0290 -13.0290
    -8.5449  -8.5449  -8.4397  -8.4397  -8.2833  -8.2833  -8.2827  -8.2827
    -8.1493  -8.1493  -8.0542  -8.0542  -4.3898  -4.3898  -4.2038  -4.2038
    -4.1106  -4.1106  -4.1085  -4.1085  -4.0744  -4.0744  -4.0653  -4.0653
    -4.0639  -4.0639  -3.9813  -3.9813   0.1987   0.1987   0.2597   0.2597
     0.4841   0.4841   1.1837   1.1837   1.2336   1.2336   1.3468   1.3468
     1.6246   1.6246   1.7747   1.7747   2.0384   2.0384   2.0636   2.0636
     2.1316   2.1316   2.1325   2.1325   2.2209   2.2209   2.2290   2.2290
     2.3430   2.3430   2.4272   2.4272   2.6591   2.6591   2.7177   2.7177

     highest occupied level (ev):     3.4148

!    total energy              =   -8165.86054238 Ry
     estimated scf accuracy    <          5.4E-10 Ry

     The total energy is the sum of the following terms:
     one-electron contribution =    -324.91153154 Ry
     hartree contribution      =     251.21487271 Ry
     xc contribution           =    -792.77370342 Ry
     ewald contribution        =    -649.77132633 Ry
     one-center paw contrib.   =   -6649.61885380 Ry

     convergence has been achieved in  11 iterations

     Forces acting on atoms (cartesian axes, Ry/au):

     atom    1 type  1   force =     0.00023779   -0.00020489    0.00000000
     atom    2 type  1   force =    -0.00023779    0.00020489   -0.00000000
     atom    3 type  1   force =     0.00023779    0.00020489   -0.00000000
     atom    4 type  1   force =    -0.00023779   -0.00020489    0.00000000
     atom    5 type  2   force =     0.00000000    0.00000000    0.00000000
     atom    6 type  2   force =     0.00000000    0.00000000    0.00000000
     atom    7 type  2   force =     0.00000000    0.00000000   -0.00000000
     atom    8 type  2   force =     0.00000000    0.00000000    0.00000000
     atom    9 type  3   force =    -0.00076723   -0.00019027   -0.00000000
     atom   10 type  3   force =     0.00076723    0.00019027   -0.00000000
     atom   11 type  3   force =    -0.00076723    0.00019027    0.00000000
     atom   12 type  3   force =     0.00076723   -0.00019027    0.00000000
     atom   13 type  3   force =     0.00008401   -0.00000052   -0.00002739
     atom   14 type  3   force =    -0.00008401    0.00000052   -0.00002739
     atom   15 type  3   force =     0.00008401    0.00000052    0.00002739
     atom   16 type  3   force =    -0.00008401   -0.00000052    0.00002739
     atom   17 type  3   force =    -0.00008401    0.00000052    0.00002739
     atom   18 type  3   force =     0.00008401   -0.00000052    0.00002739
     atom   19 type  3   force =    -0.00008401   -0.00000052   -0.00002739
     atom   20 type  3   force =     0.00008401    0.00000052   -0.00002739

     Total force =     0.001719     Total SCF correction =     0.000009


     Computing stress (Cartesian axis) and pressure

          total   stress  (Ry/bohr**3)                   (kbar)     P=       -0.07
  -0.00000070   0.00000000   0.00000000           -0.10        0.00        0.00
   0.00000000   0.00000231   0.00000000            0.00        0.34        0.00
   0.00000000   0.00000000  -0.00000300            0.00        0.00       -0.44


     number of scf cycles    =   2
     number of bfgs steps    =   1

     enthalpy old            =   -8165.8605367354 Ry
     enthalpy new            =   -8165.8605423760 Ry

     CASE: enthalpy_new < enthalpy_old


     WARNING: bfgs curvature condition failed, Theta= 0.837
     new trust radius        =       0.0014306709 bohr
     new conv_thr            =            1.0E-11 Ry

     new unit-cell volume =   6237.46262 a.u.^3 (   924.29660 Ang^3 )
     density =      5.17992 g/cm^3

CELL_PARAMETERS (angstrom)
   8.377261800   0.000000000   0.000000000
   0.000000000   8.934175243   0.000000000
   0.000000000   0.000000000  12.349654278

ATOMIC_POSITIONS (angstrom)
Cs            3.9094291952        3.7248746822        3.0874135696
Cs            4.4678326049        5.2093005610        9.2622407089
Cs           -0.2792017048        0.7422129394        9.2622407089
Cs            8.6564635050        8.1919623038        3.0874135696
Pb            4.1886309001        0.0000000000        0.0000000000
Pb            4.1886309001       -0.0000000000        6.1748271392
Pb            0.0000000000        4.4670876216       -0.0000000000
Pb            0.0000000000        4.4670876216        6.1748271392
I             4.9105362181        0.0660219768        3.0874135696
I             3.4667255821        8.8681532664        9.2622407089
I             0.7219053180        4.4010656448        9.2622407089
I             7.6553564822        4.5331095984        3.0874135696
I             5.7602767166        2.7283741927       11.8514754801
I             2.6169850835        6.2058010504        5.6766483408
I             1.5716458166        1.7387134289        0.4981787984
I             6.8056159836        7.1954618143        6.6730059376
I             2.6169850835        6.2058010504        0.4981787984
I             5.7602767166        2.7283741927        6.6730059376
I             6.8056159836        7.1954618143       11.8514754801
I             1.5716458166        1.7387134289        5.6766483408



     Writing output data file ./tmp/unit_tight.save/
     NEW-OLD atomic charge density approx. for the potential
     extrapolated charge  175.99227, renormalised to  176.00000

     total cpu time spent up to now is      628.6 secs

     Self-consistent Calculation

     iteration #  1     ecut=    60.00 Ry     beta= 0.30
     Davidson diagonalization with overlap
     ethr =  1.00E-06,  avg # of iterations =  2.0

     Threshold (ethr) on eigenvalues was too large:
     Diagonalizing with lowered threshold

     Davidson diagonalization with overlap
     ethr =  3.24E-10,  avg # of iterations =  7.0

     total cpu time spent up to now is      662.7 secs

     total energy              =   -8165.86054758 Ry
     estimated scf accuracy    <       0.00000120 Ry

     iteration #  2     ecut=    60.00 Ry     beta= 0.30
     Davidson diagonalization with overlap
     ethr =  6.80E-10,  avg # of iterations =  5.0

     total cpu time spent up to now is      682.8 secs

     total energy              =   -8165.86054845 Ry
     estimated scf accuracy    <       0.00000021 Ry

     iteration #  3     ecut=    60.00 Ry     beta= 0.30
     Davidson diagonalization with overlap
     ethr =  1.22E-10,  avg # of iterations =  2.4

     total cpu time spent up to now is      695.7 secs

     total energy              =   -8165.86054842 Ry
     estimated scf accuracy    <       0.00000011 Ry

     iteration #  4     ecut=    60.00 Ry     beta= 0.30
     Davidson diagonalization with overlap
     ethr =  6.31E-11,  avg # of iterations =  3.2

     total cpu time spent up to now is      710.7 secs

     total energy              =   -8165.86054844 Ry
     estimated scf accuracy    <          4.0E-09 Ry

     iteration #  5     ecut=    60.00 Ry     beta= 0.30
     Davidson diagonalization with overlap
     ethr =  2.29E-12,  avg # of iterations =  5.6

     total cpu time spent up to now is      730.9 secs

     total energy              =   -8165.86054845 Ry
     estimated scf accuracy    <          3.6E-09 Ry

     iteration #  6     ecut=    60.00 Ry     beta= 0.30
     Davidson diagonalization with overlap
     ethr =  2.05E-12,  avg # of iterations =  1.8

     total cpu time spent up to now is      743.7 secs

     total energy              =   -8165.86054845 Ry
     estimated scf accuracy    <          1.8E-09 Ry

     iteration #  7     ecut=    60.00 Ry     beta= 0.30
     Davidson diagonalization with overlap
     ethr =  1.00E-12,  avg # of iterations =  5.2

     total cpu time spent up to now is      763.7 secs

     total energy              =   -8165.86054845 Ry
     estimated scf accuracy    <          5.8E-09 Ry

     iteration #  8     ecut=    60.00 Ry     beta= 0.30
     Davidson diagonalization with overlap
     ethr =  1.00E-12,  avg # of iterations =  1.0

     total cpu time spent up to now is      775.8 secs

     total energy              =   -8165.86054845 Ry
     estimated scf accuracy    <          6.0E-09 Ry

     iteration #  9     ecut=    60.00 Ry     beta= 0.30
     Davidson diagonalization with overlap
     ethr =  1.00E-12,  avg # of iterations =  4.0

     total cpu time spent up to now is      792.3 secs

     total energy              =   -8165.86054845 Ry
     estimated scf accuracy    <          1.7E-10 Ry

     iteration # 10     ecut=    60.00 Ry     beta= 0.30
     Davidson diagonalization with overlap
     ethr =  1.00E-13,  avg # of iterations =  2.0

     total cpu time spent up to now is      805.4 secs

     total energy              =   -8165.86054845 Ry
     estimated scf accuracy    <          3.0E-10 Ry

     iteration # 11     ecut=    60.00 Ry     beta= 0.30
     Davidson diagonalization with overlap
     ethr =  1.00E-13,  avg # of iterations =  2.0

     total cpu time spent up to now is      819.0 secs

     total energy              =   -8165.86054845 Ry
     estimated scf accuracy    <          8.4E-11 Ry

     iteration # 12     ecut=    60.00 Ry     beta= 0.30
     Davidson diagonalization with overlap
     ethr =  1.00E-13,  avg # of iterations =  1.0

     total cpu time spent up to now is      831.1 secs

     total energy              =   -8165.86054845 Ry
     estimated scf accuracy    <          8.4E-11 Ry

     iteration # 13     ecut=    60.00 Ry     beta= 0.30
     Davidson diagonalization with overlap
     ethr =  1.00E-13,  avg # of iterations =  1.0

     total cpu time spent up to now is      843.1 secs

     total energy              =   -8165.86054845 Ry
     estimated scf accuracy    <          3.0E-11 Ry

     iteration # 14     ecut=    60.00 Ry     beta= 0.30
     Davidson diagonalization with overlap
     ethr =  1.00E-13,  avg # of iterations =  1.7

     total cpu time spent up to now is      855.5 secs

     End of self-consistent calculation

          k = 0.0000 0.0000 0.0000 ( 49019 PWs)   bands (ev):

   -17.2583 -17.2576 -17.2560 -17.2555 -13.0936 -13.0912 -13.0907 -13.0863
   -13.0797 -13.0724 -13.0701 -13.0700 -13.0378 -13.0376 -13.0372 -13.0370
   -13.0353 -13.0352 -13.0347 -13.0346 -13.0290 -13.0287 -13.0284 -13.0281
    -8.7802  -8.5894  -8.3273  -8.2873  -8.2815  -8.2623  -8.2618  -8.2420
    -8.2276  -8.0547  -8.0481  -8.0404  -4.9768  -4.4675  -4.1300  -4.1258
    -4.1221  -4.1199  -4.1168  -4.1122  -4.1073  -4.1026  -4.0932  -4.0713
    -4.0591  -4.0515  -3.9136  -3.4690  -0.0131   0.0300   0.0514   0.1818
     0.1892   0.2750   1.1038   1.3963   1.4071   1.4294   1.4433   1.4939
     1.7271   1.9095   1.9277   1.9280   2.0129   2.0229   2.0259   2.0586
     2.0661   2.0747   2.1001   2.1010   2.1576   2.3547   2.3759   2.4158
     2.4395   2.4425   2.4636   2.4921   2.6830   2.6952   2.9639   3.4155

          k = 0.0000 0.0000 0.2261 ( 48974 PWs)   bands (ev):

   -17.2581 -17.2578 -17.2559 -17.2556 -13.0909 -13.0908 -13.0901 -13.0831
   -13.0830 -13.0759 -13.0701 -13.0701 -13.0376 -13.0374 -13.0373 -13.0371
   -13.0353 -13.0352 -13.0347 -13.0346 -13.0290 -13.0288 -13.0283 -13.0282
    -8.7458  -8.6568  -8.3119  -8.2830  -8.2776  -8.2688  -8.2422  -8.2321
    -8.1996  -8.0921  -8.0506  -8.0435  -4.8579  -4.6027  -4.1301  -4.1292
    -4.1278  -4.1257  -4.1133  -4.1047  -4.0867  -4.0863  -4.0736  -4.0688
    -4.0682  -4.0609  -3.8549  -3.6238   0.0548   0.0843   0.0958   0.1551
     0.4196   0.6277   1.1031   1.1743   1.2867   1.4601   1.4702   1.5148
     1.5453   1.6658   1.8425   1.9265   1.9472   1.9756   2.0539   2.0638
     2.0836   2.1208   2.1589   2.1640   2.2552   2.2660   2.3193   2.3672
     2.4023   2.4098   2.4436   2.4617   2.6067   2.6704   2.9921   3.1407

          k = 0.0000 0.2344 0.0000 ( 49004 PWs)   bands (ev):

   -17.2580 -17.2573 -17.2563 -17.2558 -13.0926 -13.0893 -13.0878 -13.0863
   -13.0788 -13.0733 -13.0731 -13.0729 -13.0377 -13.0376 -13.0372 -13.0370
   -13.0353 -13.0351 -13.0348 -13.0347 -13.0290 -13.0286 -13.0285 -13.0282
    -8.7417  -8.5479  -8.4761  -8.3182  -8.2776  -8.2655  -8.2177  -8.2006
    -8.1700  -8.0838  -8.0679  -8.0559  -4.8475  -4.3671  -4.2304  -4.1342
    -4.1267  -4.1198  -4.1158  -4.1055  -4.0864  -4.0850  -4.0794  -4.0777
    -4.0700  -4.0332  -3.9953  -3.6364   0.0433   0.2043   0.2125   0.3098
     0.3763   0.4026   1.1715   1.2804   1.2811   1.3543   1.4323   1.4873
     1.4999   1.6026   1.7474   1.8660   1.9751   1.9759   2.0190   2.0427
     2.1140   2.1174   2.1654   2.1693   2.1847   2.2843   2.3303   2.3346
     2.3894   2.4063   2.4525   2.5105   2.6963   2.7225   2.7433   3.1303

          k = 0.0000 0.2344 0.2261 ( 48988 PWs)   bands (ev):

   -17.2578 -17.2575 -17.2562 -17.2560 -13.0891 -13.0882 -13.0879 -13.0837
   -13.0822 -13.0769 -13.0731 -13.0730 -13.0376 -13.0375 -13.0373 -13.0372
   -13.0352 -13.0351 -13.0348 -13.0347 -13.0289 -13.0287 -13.0284 -13.0283
    -8.7073  -8.6175  -8.4499  -8.3819  -8.2179  -8.2165  -8.2086  -8.1947
    -8.1811  -8.0965  -8.0797  -8.0717  -4.7344  -4.4918  -4.1585  -4.1294
    -4.1281  -4.1173  -4.1136  -4.1087  -4.0953  -4.0856  -4.0838  -4.0697
    -4.0656  -4.0527  -3.9699  -3.7791   0.2476   0.2709   0.3221   0.3473
     0.4914   0.5742   1.1293   1.2153   1.2586   1.3117   1.3263   1.4098
     1.5185   1.6054   1.6250   1.8242   1.8244   1.9364   1.9379   2.0247
     2.0374   2.1075   2.1167   2.1395   2.2664   2.3143   2.3549   2.3735
     2.3995   2.4052   2.4327   2.4803   2.6532   2.6926   2.7268   2.8805

          k = 0.0000-0.4689 0.0000 ( 48914 PWs)   bands (ev):

   -17.2571 -17.2571 -17.2566 -17.2566 -13.0904 -13.0904 -13.0809 -13.0809
   -13.0803 -13.0803 -13.0755 -13.0755 -13.0377 -13.0377 -13.0371 -13.0371
   -13.0350 -13.0350 -13.0349 -13.0349 -13.0287 -13.0287 -13.0284 -13.0284
    -8.6329  -8.6329  -8.4400  -8.4400  -8.2719  -8.2719  -8.1524  -8.1524
    -8.1346  -8.1346  -8.0897  -8.0897  -4.5339  -4.5339  -4.1668  -4.1668
    -4.1216  -4.1216  -4.0986  -4.0986  -4.0958  -4.0958  -4.0803  -4.0803
    -4.0609  -4.0609  -3.9300  -3.9300   0.1201   0.1201   0.6451   0.6451
     0.8312   0.8312   0.9123   0.9123   0.9943   0.9943   1.3216   1.3216
     1.6196   1.6196   1.7384   1.7384   1.8477   1.8477   2.0215   2.0215
     2.0921   2.0921   2.1260   2.1260   2.2229   2.2229   2.3404   2.3404
     2.3955   2.3955   2.4533   2.4533   2.6401   2.6401   2.8600   2.8600

          k = 0.0000-0.4689 0.2261 ( 48958 PWs)   bands (ev):

   -17.2570 -17.2570 -17.2567 -17.2567 -13.0869 -13.0869 -13.0815 -13.0815
   -13.0802 -13.0802 -13.0785 -13.0785 -13.0375 -13.0375 -13.0372 -13.0372
   -13.0350 -13.0350 -13.0349 -13.0349 -13.0287 -13.0287 -13.0285 -13.0285
    -8.5999  -8.5999  -8.5130  -8.5130  -8.2022  -8.2022  -8.1493  -8.1493
    -8.1385  -8.1385  -8.1183  -8.1183  -4.4305  -4.4305  -4.2260  -4.2260
    -4.1246  -4.1246  -4.1093  -4.1093  -4.0944  -4.0944  -4.0775  -4.0775
    -4.0577  -4.0577  -4.0032  -4.0032   0.4565   0.4565   0.6870   0.6870
     0.7666   0.7666   0.9266   0.9266   0.9681   0.9681   1.2246   1.2246
     1.6719   1.6719   1.7217   1.7217   1.7964   1.7964   1.8937   1.8937
     1.9424   1.9424   1.9808   1.9808   2.3229   2.3229   2.3884   2.3884
     2.3995   2.3995   2.4749   2.4749   2.6499   2.6499   2.7069   2.7069

          k = 0.2500 0.0000 0.0000 ( 48921 PWs)   bands (ev):

   -17.2580 -17.2574 -17.2561 -17.2557 -13.0926 -13.0893 -13.0878 -13.0863
   -13.0788 -13.0733 -13.0731 -13.0729 -13.0377 -13.0376 -13.0372 -13.0370
   -13.0352 -13.0351 -13.0348 -13.0347 -13.0290 -13.0286 -13.0285 -13.0282
    -8.7383  -8.5436  -8.4594  -8.2895  -8.2779  -8.2683  -8.2530  -8.2306
    -8.1561  -8.0882  -8.0734  -8.0556  -4.8454  -4.3591  -4.2064  -4.1260
    -4.1234  -4.1175  -4.1135  -4.1068  -4.1065  -4.0872  -4.0823  -4.0716
    -4.0633  -4.0402  -3.9912  -3.6396   0.0419   0.1856   0.2109   0.3208
     0.3350   0.4699   1.1411   1.1834   1.3129   1.3840   1.4986   1.5024
     1.5069   1.6119   1.8278   1.8514   1.9820   1.9901   2.0187   2.0357
     2.1176   2.1281   2.1758   2.2107   2.2180   2.2267   2.2404   2.3636
     2.3779   2.4078   2.4532   2.5060   2.6222   2.6827   2.7061   3.0503

          k = 0.2500 0.0000 0.2261 ( 48983 PWs)   bands (ev):

   -17.2579 -17.2576 -17.2560 -17.2559 -13.0891 -13.0883 -13.0879 -13.0837
   -13.0822 -13.0769 -13.0731 -13.0730 -13.0376 -13.0375 -13.0373 -13.0372
   -13.0352 -13.0351 -13.0348 -13.0347 -13.0289 -13.0287 -13.0284 -13.0283
    -8.7039  -8.6139  -8.4329  -8.3641  -8.2492  -8.2382  -8.2074  -8.1997
    -8.1680  -8.0967  -8.0838  -8.0764  -4.7314  -4.4859  -4.1410  -4.1335
    -4.1295  -4.1202  -4.1004  -4.0985  -4.0925  -4.0868  -4.0792  -4.0667
    -4.0636  -4.0609  -3.9764  -3.7866   0.2163   0.2617   0.3185   0.4150
     0.4753   0.5682   1.1054   1.1532   1.2179   1.3428   1.3883   1.3933
     1.5809   1.6213   1.6422   1.7975   1.9242   1.9422   2.0364   2.0373
     2.0639   2.0868   2.1530   2.1914   2.2499   2.2515   2.3109   2.3612
     2.3842   2.4010   2.4211   2.4743   2.5771   2.6015   2.6912   2.7741

          k = 0.2500 0.2344 0.0000 ( 48919 PWs)   bands (ev):

   -17.2578 -17.2572 -17.2564 -17.2560 -13.0931 -13.0895 -13.0867 -13.0841
   -13.0787 -13.0758 -13.0747 -13.0716 -13.0377 -13.0376 -13.0371 -13.0370
   -13.0352 -13.0350 -13.0349 -13.0347 -13.0289 -13.0286 -13.0286 -13.0283
    -8.7036  -8.5034  -8.5018  -8.2848  -8.2815  -8.2774  -8.2623  -8.2574
    -8.1452  -8.1060  -8.0958  -8.0351  -4.7437  -4.2957  -4.2871  -4.1232
    -4.1159  -4.1145  -4.1140  -4.1033  -4.0946  -4.0813  -4.0775  -4.0755
    -4.0722  -4.0233  -4.0119  -3.7292   0.0597   0.1004   0.1755   0.2464
     0.7063   0.8204   0.8563   1.0309   1.2595   1.2700   1.2949   1.5471
     1.5611   1.7077   1.7956   1.9161   1.9585   1.9741   2.0479   2.0656
     2.0698   2.1123   2.1330   2.1423   2.2194   2.2766   2.3217   2.3234
     2.3353   2.3609   2.4437   2.4733   2.6038   2.7115   2.7419   3.0513

          k = 0.2500 0.2344 0.2261 ( 48969 PWs)   bands (ev):

   -17.2576 -17.2573 -17.2563 -17.2561 -13.0903 -13.0872 -13.0864 -13.0830
   -13.0810 -13.0785 -13.0744 -13.0732 -13.0376 -13.0375 -13.0373 -13.0372
   -13.0351 -13.0351 -13.0348 -13.0348 -13.0288 -13.0286 -13.0285 -13.0283
    -8.6688  -8.5772  -8.4702  -8.3853  -8.2723  -8.2676  -8.2063  -8.1748
    -8.1505  -8.1155  -8.1010  -8.0646  -4.6348  -4.4020  -4.2084  -4.1242
    -4.1226  -4.1190  -4.1078  -4.0969  -4.0920  -4.0854  -4.0790  -4.0737
    -4.0658  -4.0451  -4.0132  -3.8649   0.1309   0.1929   0.4151   0.5244
     0.7565   0.7747   0.8964   0.9578   1.1334   1.2462   1.3094   1.3628
     1.5719   1.6814   1.7052   1.8088   1.8655   1.9106   1.9324   1.9664
     2.0735   2.1025   2.1810   2.2118   2.2575   2.3028   2.3192   2.3467
     2.3690   2.3811   2.4333   2.4524   2.5847   2.6132   2.6951   2.7985

          k = 0.2500-0.4689 0.0000 ( 48942 PWs)   bands (ev):

   -17.2571 -17.2571 -17.2566 -17.2566 -13.0918 -13.0918 -13.0832 -13.0832
   -13.0789 -13.0789 -13.0732 -13.0732 -13.0377 -13.0377 -13.0371 -13.0371
   -13.0350 -13.0350 -13.0349 -13.0349 -13.0287 -13.0287 -13.0284 -13.0284
    -8.6105  -8.6105  -8.3996  -8.3996  -8.2767  -8.2767  -8.2236  -8.2236
    -8.1835  -8.1835  -8.0436  -8.0436  -4.5102  -4.5102  -4.1498  -4.1498
    -4.1194  -4.1194  -4.0995  -4.0995  -4.0917  -4.0917  -4.0786  -4.0786
    -4.0657  -4.0657  -3.9086  -3.9086   0.1126   0.1126   0.3395   0.3395
     0.4849   0.4849   1.1634   1.1634   1.2414   1.2414   1.3588   1.3588
     1.6395   1.6395   1.8423   1.8423   1.9506   1.9506   2.0380   2.0380
     2.1169   2.1169   2.2092   2.2092   2.2141   2.2141   2.2685   2.2685
     2.3378   2.3378   2.3881   2.3881   2.6458   2.6458   2.8650   2.8650

          k = 0.2500-0.4689 0.2261 ( 48988 PWs)   bands (ev):

   -17.2570 -17.2570 -17.2567 -17.2567 -13.0889 -13.0889 -13.0844 -13.0844
   -13.0782 -13.0782 -13.0756 -13.0756 -13.0375 -13.0375 -13.0372 -13.0372
   -13.0350 -13.0350 -13.0349 -13.0349 -13.0287 -13.0287 -13.0285 -13.0285
    -8.5756  -8.5756  -8.4826  -8.4826  -8.2367  -8.2367  -8.2249  -8.2249
    -8.1447  -8.1447  -8.0723  -8.0723  -4.4101  -4.4101  -4.2141  -4.2141
    -4.1179  -4.1179  -4.1080  -4.1080  -4.0847  -4.0847  -4.0760  -4.0760
    -4.0555  -4.0555  -3.9928  -3.9928   0.3526   0.3526   0.4234   0.4234
     0.5096   0.5096   1.1594   1.1594   1.2080   1.2080   1.2339   1.2339
     1.5682   1.5682   1.7612   1.7612   1.8950   1.8950   1.9915   1.9915
     2.0834   2.0834   2.1173   2.1173   2.2986   2.2986   2.3353   2.3353
     2.3669   2.3669   2.4159   2.4159   2.6235   2.6235   2.6606   2.6606

          k =-0.5000 0.0000 0.0000 ( 48876 PWs)   bands (ev):

   -17.2575 -17.2575 -17.2562 -17.2562 -13.0904 -13.0904 -13.0809 -13.0809
   -13.0803 -13.0803 -13.0755 -13.0755 -13.0377 -13.0377 -13.0371 -13.0371
   -13.0350 -13.0350 -13.0349 -13.0349 -13.0287 -13.0287 -13.0284 -13.0284
    -8.6216  -8.6216  -8.4242  -8.4242  -8.2747  -8.2747  -8.1751  -8.1751
    -8.1527  -8.1527  -8.0840  -8.0840  -4.5243  -4.5243  -4.1637  -4.1637
    -4.1189  -4.1189  -4.0983  -4.0983  -4.0740  -4.0740  -4.0671  -4.0671
    -4.0515  -4.0515  -3.9597  -3.9597   0.1227   0.1227   0.5966   0.5966
     0.8074   0.8074   0.9251   0.9251   1.1230   1.1230   1.2681   1.2681
     1.5992   1.5992   1.8162   1.8162   1.9153   1.9153   2.0272   2.0272
     2.0573   2.0573   2.2123   2.2123   2.2223   2.2223   2.2824   2.2824
     2.3725   2.3725   2.4493   2.4493   2.5034   2.5034   2.7572   2.7572

          k =-0.5000 0.0000 0.2261 ( 48902 PWs)   bands (ev):

   -17.2574 -17.2574 -17.2562 -17.2562 -13.0869 -13.0869 -13.0815 -13.0815
   -13.0802 -13.0802 -13.0784 -13.0784 -13.0375 -13.0375 -13.0372 -13.0372
   -13.0350 -13.0350 -13.0349 -13.0349 -13.0287 -13.0287 -13.0285 -13.0285
    -8.5886  -8.5886  -8.5007  -8.5007  -8.2024  -8.2024  -8.1760  -8.1760
    -8.1515  -8.1515  -8.1128  -8.1128  -4.4181  -4.4181  -4.2091  -4.2091
    -4.1216  -4.1216  -4.1097  -4.1097  -4.0812  -4.0812  -4.0685  -4.0685
    -4.0489  -4.0489  -4.0353  -4.0353   0.4577   0.4577   0.6404   0.6404
     0.7486   0.7486   0.9433   0.9433   1.0358   1.0358   1.1707   1.1707
     1.6821   1.6821   1.8259   1.8259   1.8483   1.8483   1.9447   1.9447
     1.9586   1.9586   2.0858   2.0858   2.3074   2.3074   2.3313   2.3313
     2.3788   2.3788   2.4307   2.4307   2.5052   2.5052   2.5426   2.5426

          k =-0.5000 0.2344 0.0000 ( 48934 PWs)   bands (ev):

   -17.2573 -17.2573 -17.2563 -17.2563 -13.0918 -13.0918 -13.0832 -13.0832
   -13.0789 -13.0789 -13.0732 -13.0732 -13.0377 -13.0377 -13.0371 -13.0371
   -13.0350 -13.0350 -13.0349 -13.0349 -13.0287 -13.0287 -13.0284 -13.0284
    -8.6039  -8.6039  -8.3883  -8.3883  -8.2787  -8.2787  -8.2315  -8.2315
    -8.1959  -8.1959  -8.0444  -8.0444  -4.5050  -4.5050  -4.1517  -4.1517
    -4.1066  -4.1066  -4.1063  -4.1063  -4.0854  -4.0854  -4.0743  -4.0743
    -4.0583  -4.0583  -3.9205  -3.9205   0.1124   0.1124   0.3288   0.3288
     0.4949   0.4949   1.1205   1.1205   1.2508   1.2508   1.4287   1.4287
     1.6518   1.6518   1.8623   1.8623   1.9815   1.9815   2.0556   2.0556
     2.0820   2.0820   2.1894   2.1894   2.2032   2.2032   2.2597   2.2597
     2.3087   2.3087   2.3948   2.3948   2.6048   2.6048   2.8265   2.8265

          k =-0.5000 0.2344 0.2261 ( 48884 PWs)   bands (ev):

   -17.2573 -17.2573 -17.2564 -17.2564 -13.0889 -13.0889 -13.0844 -13.0844
   -13.0782 -13.0782 -13.0755 -13.0755 -13.0375 -13.0375 -13.0372 -13.0372
   -13.0350 -13.0350 -13.0349 -13.0349 -13.0286 -13.0286 -13.0285 -13.0285
    -8.5689  -8.5689  -8.4749  -8.4749  -8.2451  -8.2451  -8.2284  -8.2284
    -8.1511  -8.1511  -8.0738  -8.0738  -4.4038  -4.4038  -4.2072  -4.2072
    -4.1100  -4.1100  -4.1033  -4.1033  -4.0914  -4.0914  -4.0731  -4.0731
    -4.0490  -4.0490  -4.0060  -4.0060   0.3529   0.3529   0.4152   0.4152
     0.5093   0.5093   1.0978   1.0978   1.2363   1.2363   1.2739   1.2739
     1.5982   1.5982   1.7887   1.7887   1.9015   1.9015   2.0545   2.0545
     2.1084   2.1084   2.1558   2.1558   2.2583   2.2583   2.2835   2.2835
     2.3233   2.3233   2.4095   2.4095   2.5707   2.5707   2.5988   2.5988

          k =-0.5000-0.4689 0.0000 ( 48992 PWs)   bands (ev):

   -17.2571 -17.2571 -17.2566 -17.2566 -13.0930 -13.0930 -13.0847 -13.0847
   -13.0777 -13.0777 -13.0717 -13.0717 -13.0377 -13.0377 -13.0371 -13.0371
   -13.0350 -13.0350 -13.0349 -13.0349 -13.0287 -13.0287 -13.0284 -13.0284
    -8.5830  -8.5830  -8.3081  -8.3081  -8.2969  -8.2969  -8.2832  -8.2832
    -8.2608  -8.2608  -8.0211  -8.0211  -4.4861  -4.4861  -4.1339  -4.1339
    -4.1135  -4.1135  -4.1016  -4.1016  -4.0854  -4.0854  -4.0771  -4.0771
    -4.0729  -4.0729  -3.8878  -3.8878   0.0996   0.0996   0.1671   0.1671
     0.3228   0.3228   1.1672   1.1672   1.2942   1.2942   1.6251   1.6251
     1.6595   1.6595   1.9179   1.9179   1.9674   1.9674   2.0215   2.0215
     2.1191   2.1191   2.1724   2.1724   2.2104   2.2104   2.2289   2.2289
     2.2698   2.2698   2.4285   2.4285   2.6884   2.6884   2.9369   2.9369

          k =-0.5000-0.4689 0.2261 ( 48964 PWs)   bands (ev):

   -17.2570 -17.2570 -17.2567 -17.2567 -13.0903 -13.0903 -13.0861 -13.0861
   -13.0769 -13.0769 -13.0739 -13.0739 -13.0375 -13.0375 -13.0372 -13.0372
   -13.0350 -13.0350 -13.0349 -13.0349 -13.0286 -13.0286 -13.0285 -13.0285
    -8.5448  -8.5448  -8.4396  -8.4396  -8.2828  -8.2828  -8.2821  -8.2821
    -8.1491  -8.1491  -8.0539  -8.0539  -4.3896  -4.3896  -4.2033  -4.2033
    -4.1102  -4.1102  -4.1081  -4.1081  -4.0740  -4.0740  -4.0648  -4.0648
    -4.0635  -4.0635  -3.9809  -3.9809   0.1991   0.1991   0.2600   0.2600
     0.4840   0.4840   1.1840   1.1840   1.2337   1.2337   1.3471   1.3471
     1.6250   1.6250   1.7750   1.7750   2.0386   2.0386   2.0640   2.0640
     2.1319   2.1319   2.1329   2.1329   2.2213   2.2213   2.2294   2.2294
     2.3434   2.3434   2.4276   2.4276   2.6596   2.6596   2.7182   2.7182

     highest occupied level (ev):     3.4155

!    total energy              =   -8165.86054845 Ry
     estimated scf accuracy    <          2.0E-13 Ry

     The total energy is the sum of the following terms:
     one-electron contribution =    -324.91045695 Ry
     hartree contribution      =     251.21720877 Ry
     xc contribution           =    -792.77414603 Ry
     ewald contribution        =    -649.77424131 Ry
     one-center paw contrib.   =   -6649.61891292 Ry

     convergence has been achieved in  14 iterations

     Forces acting on atoms (cartesian axes, Ry/au):

     atom    1 type  1   force =     0.00023942   -0.00020313   -0.00000000
     atom    2 type  1   force =    -0.00023942    0.00020313    0.00000000
     atom    3 type  1   force =     0.00023942    0.00020313    0.00000000
     atom    4 type  1   force =    -0.00023942   -0.00020313   -0.00000000
     atom    5 type  2   force =     0.00000000    0.00000000   -0.00000000
     atom    6 type  2   force =    -0.00000000    0.00000000    0.00000000
     atom    7 type  2   force =     0.00000000   -0.00000000    0.00000000
     atom    8 type  2   force =     0.00000000    0.00000000   -0.00000000
     atom    9 type  3   force =    -0.00074217   -0.00018831    0.00000000
     atom   10 type  3   force =     0.00074217    0.00018831    0.00000000
     atom   11 type  3   force =    -0.00074217    0.00018831    0.00000000
     atom   12 type  3   force =     0.00074217   -0.00018831    0.00000000
     atom   13 type  3   force =     0.00007424   -0.00001191   -0.00002370
     atom   14 type  3   force =    -0.00007424    0.00001191   -0.00002370
     atom   15 type  3   force =     0.00007424    0.00001191    0.00002370
     atom   16 type  3   force =    -0.00007424   -0.00001191    0.00002370
     atom   17 type  3   force =    -0.00007424    0.00001191    0.00002370
     atom   18 type  3   force =     0.00007424   -0.00001191    0.00002370
     atom   19 type  3   force =    -0.00007424   -0.00001191   -0.00002370
     atom   20 type  3   force =     0.00007424    0.00001191   -0.00002370

     Total force =     0.001670     Total SCF correction =     0.000001


     Computing stress (Cartesian axis) and pressure

          total   stress  (Ry/bohr**3)                   (kbar)     P=       -0.06
  -0.00000069   0.00000000   0.00000000           -0.10        0.00        0.00
   0.00000000   0.00000222   0.00000000            0.00        0.33        0.00
   0.00000000   0.00000000  -0.00000271            0.00        0.00       -0.40


     number of scf cycles    =   3
     number of bfgs steps    =   2

     enthalpy old            =   -8165.8605423760 Ry
     enthalpy new            =   -8165.8605484473 Ry

     CASE: enthalpy_new < enthalpy_old

     new trust radius        =       0.0021461535 bohr
     new conv_thr            =            1.0E-11 Ry

     new unit-cell volume =   6237.07065 a.u.^3 (   924.23851 Ang^3 )
     density =      5.18024 g/cm^3

CELL_PARAMETERS (angstrom)
   8.376981747   0.000000000   0.000000000
   0.000000000   8.935126501   0.000000000
   0.000000000   0.000000000  12.347976318

ATOMIC_POSITIONS (angstrom)
Cs            3.9095374071        3.7250662789        3.0869940796
Cs            4.4674443400        5.2100602216        9.2609822388
Cs           -0.2789534664        0.7424969713        9.2609822388
Cs            8.6559352135        8.1926295292        3.0869940796
Pb            4.1884908736        0.0000000000       -0.0000000000
Pb            4.1884908736       -0.0000000000        6.1739881592
Pb            0.0000000000        4.4675632503        0.0000000000
Pb            0.0000000000        4.4675632503        6.1739881592
I             4.9096175398        0.0658400034        3.0869940796
I             3.4673642073        8.8692864972        9.2609822388
I             0.7211266662        4.4017232469        9.2609822388
I             7.6558550809        4.5334032536        3.0869940796
I             5.7601638642        2.7286588875       11.8498397844
I             2.6168178829        6.2064676130        5.6758516252
I             1.5716729906        1.7389043628        0.4981365340
I             6.8053087565        7.1962221378        6.6721246932
I             2.6168178829        6.2064676130        0.4981365340
I             5.7601638642        2.7286588875        6.6721246932
I             6.8053087565        7.1962221378       11.8498397844
I             1.5716729906        1.7389043628        5.6758516252



     Writing output data file ./tmp/unit_tight.save/
     NEW-OLD atomic charge density approx. for the potential
     extrapolated charge  175.98895, renormalised to  176.00000

     total cpu time spent up to now is      945.2 secs

     Self-consistent Calculation

     iteration #  1     ecut=    60.00 Ry     beta= 0.30
     Davidson diagonalization with overlap
     ethr =  1.00E-06,  avg # of iterations =  2.0

     Threshold (ethr) on eigenvalues was too large:
     Diagonalizing with lowered threshold

     Davidson diagonalization with overlap
     ethr =  6.18E-10,  avg # of iterations =  6.8

     total cpu time spent up to now is      979.7 secs

     total energy              =   -8165.86055545 Ry
     estimated scf accuracy    <       0.00000261 Ry

     iteration #  2     ecut=    60.00 Ry     beta= 0.30
     Davidson diagonalization with overlap
     ethr =  1.48E-09,  avg # of iterations =  5.0

     total cpu time spent up to now is      999.9 secs

     total energy              =   -8165.86055734 Ry
     estimated scf accuracy    <       0.00000055 Ry

     iteration #  3     ecut=    60.00 Ry     beta= 0.30
     Davidson diagonalization with overlap
     ethr =  3.13E-10,  avg # of iterations =  1.4

     total cpu time spent up to now is     1012.4 secs

     total energy              =   -8165.86055728 Ry
     estimated scf accuracy    <       0.00000028 Ry

     iteration #  4     ecut=    60.00 Ry     beta= 0.30
     Davidson diagonalization with overlap
     ethr =  1.61E-10,  avg # of iterations =  3.4

     total cpu time spent up to now is     1027.4 secs

     total energy              =   -8165.86055734 Ry
     estimated scf accuracy    <          9.9E-09 Ry

     iteration #  5     ecut=    60.00 Ry     beta= 0.30
     Davidson diagonalization with overlap
     ethr =  5.61E-12,  avg # of iterations =  5.9

     total cpu time spent up to now is     1047.9 secs

     total energy              =   -8165.86055735 Ry
     estimated scf accuracy    <       0.00000002 Ry

     iteration #  6     ecut=    60.00 Ry     beta= 0.30
     Davidson diagonalization with overlap
     ethr =  5.61E-12,  avg # of iterations =  2.0

     total cpu time spent up to now is     1060.6 secs

     total energy              =   -8165.86055735 Ry
     estimated scf accuracy    <          7.4E-09 Ry

     iteration #  7     ecut=    60.00 Ry     beta= 0.30
     Davidson diagonalization with overlap
     ethr =  4.18E-12,  avg # of iterations =  5.0

     total cpu time spent up to now is     1079.8 secs

     total energy              =   -8165.86055736 Ry
     estimated scf accuracy    <       0.00000001 Ry

     iteration #  8     ecut=    60.00 Ry     beta= 0.30
     Davidson diagonalization with overlap
     ethr =  4.18E-12,  avg # of iterations =  2.0

     total cpu time spent up to now is     1092.7 secs

     total energy              =   -8165.86055735 Ry
     estimated scf accuracy    <       0.00000001 Ry

     iteration #  9     ecut=    60.00 Ry     beta= 0.30
     Davidson diagonalization with overlap
     ethr =  4.18E-12,  avg # of iterations =  2.0

     total cpu time spent up to now is     1106.7 secs

     total energy              =   -8165.86055736 Ry
     estimated scf accuracy    <          1.4E-09 Ry

     iteration # 10     ecut=    60.00 Ry     beta= 0.30
     Davidson diagonalization with overlap
     ethr =  8.11E-13,  avg # of iterations =  1.0

     total cpu time spent up to now is     1118.7 secs

     total energy              =   -8165.86055735 Ry
     estimated scf accuracy    <          1.5E-09 Ry

     iteration # 11     ecut=    60.00 Ry     beta= 0.30
     Davidson diagonalization with overlap
     ethr =  8.11E-13,  avg # of iterations =  1.9

     total cpu time spent up to now is     1131.5 secs

     total energy              =   -8165.86055735 Ry
     estimated scf accuracy    <          1.5E-09 Ry

     iteration # 12     ecut=    60.00 Ry     beta= 0.30
     Davidson diagonalization with overlap
     ethr =  8.11E-13,  avg # of iterations =  2.0

     total cpu time spent up to now is     1145.4 secs

     total energy              =   -8165.86055735 Ry
     estimated scf accuracy    <          2.2E-10 Ry

     iteration # 13     ecut=    60.00 Ry     beta= 0.30
     Davidson diagonalization with overlap
     ethr =  1.22E-13,  avg # of iterations =  4.1

     total cpu time spent up to now is     1161.0 secs

     total energy              =   -8165.86055735 Ry
     estimated scf accuracy    <          2.4E-11 Ry

     iteration # 14     ecut=    60.00 Ry     beta= 0.30
     Davidson diagonalization with overlap
     ethr =  1.00E-13,  avg # of iterations =  4.0

     total cpu time spent up to now is     1178.2 secs

     total energy              =   -8165.86055735 Ry
     estimated scf accuracy    <          2.3E-10 Ry

     iteration # 15     ecut=    60.00 Ry     beta= 0.30
     Davidson diagonalization with overlap
     ethr =  1.00E-13,  avg # of iterations =  5.0

     total cpu time spent up to now is     1196.9 secs

     total energy              =   -8165.86055735 Ry
     estimated scf accuracy    <          1.1E-10 Ry

     iteration # 16     ecut=    60.00 Ry     beta= 0.30
     Davidson diagonalization with overlap
     ethr =  1.00E-13,  avg # of iterations =  1.0

     total cpu time spent up to now is     1208.9 secs

     total energy              =   -8165.86055735 Ry
     estimated scf accuracy    <          6.4E-11 Ry

     iteration # 17     ecut=    60.00 Ry     beta= 0.30
     Davidson diagonalization with overlap
     ethr =  1.00E-13,  avg # of iterations =  1.0

     total cpu time spent up to now is     1221.1 secs

     total energy              =   -8165.86055735 Ry
     estimated scf accuracy    <          2.5E-11 Ry

     iteration # 18     ecut=    60.00 Ry     beta= 0.30
     Davidson diagonalization with overlap
     ethr =  1.00E-13,  avg # of iterations =  1.0

     total cpu time spent up to now is     1233.1 secs

     total energy              =   -8165.86055735 Ry
     estimated scf accuracy    <          1.8E-11 Ry

     iteration # 19     ecut=    60.00 Ry     beta= 0.30
     Davidson diagonalization with overlap
     ethr =  1.00E-13,  avg # of iterations =  1.0

     total cpu time spent up to now is     1245.1 secs

     total energy              =   -8165.86055735 Ry
     estimated scf accuracy    <          1.9E-11 Ry

     iteration # 20     ecut=    60.00 Ry     beta= 0.30
     Davidson diagonalization with overlap
     ethr =  1.00E-13,  avg # of iterations =  1.0

     total cpu time spent up to now is     1257.2 secs

     total energy              =   -8165.86055735 Ry
     estimated scf accuracy    <          1.8E-11 Ry

     iteration # 21     ecut=    60.00 Ry     beta= 0.30
     Davidson diagonalization with overlap
     ethr =  1.00E-13,  avg # of iterations =  1.0

     total cpu time spent up to now is     1269.2 secs

     total energy              =   -8165.86055735 Ry
     estimated scf accuracy    <          1.7E-11 Ry

     iteration # 22     ecut=    60.00 Ry     beta= 0.30
     Davidson diagonalization with overlap
     ethr =  1.00E-13,  avg # of iterations =  1.0

     total cpu time spent up to now is     1281.1 secs

     End of self-consistent calculation

          k = 0.0000 0.0000 0.0000 ( 49019 PWs)   bands (ev):

   -17.2577 -17.2570 -17.2554 -17.2550 -13.0929 -13.0904 -13.0900 -13.0857
   -13.0790 -13.0717 -13.0694 -13.0692 -13.0370 -13.0368 -13.0364 -13.0362
   -13.0346 -13.0344 -13.0340 -13.0338 -13.0283 -13.0279 -13.0276 -13.0273
    -8.7800  -8.5886  -8.3276  -8.2867  -8.2817  -8.2621  -8.2616  -8.2414
    -8.2268  -8.0540  -8.0477  -8.0397  -4.9765  -4.4663  -4.1295  -4.1252
    -4.1215  -4.1193  -4.1162  -4.1119  -4.1067  -4.1020  -4.0927  -4.0707
    -4.0585  -4.0509  -3.9135  -3.4681  -0.0135   0.0304   0.0521   0.1828
     0.1895   0.2738   1.1045   1.3971   1.4080   1.4295   1.4434   1.4943
     1.7272   1.9104   1.9280   1.9284   2.0134   2.0237   2.0258   2.0592
     2.0666   2.0748   2.1007   2.1013   2.1578   2.3553   2.3766   2.4163
     2.4397   2.4432   2.4644   2.4928   2.6843   2.6958   2.9642   3.4166

          k = 0.0000 0.0000 0.2262 ( 48974 PWs)   bands (ev):

   -17.2576 -17.2572 -17.2553 -17.2551 -13.0902 -13.0900 -13.0894 -13.0824
   -13.0823 -13.0752 -13.0693 -13.0693 -13.0369 -13.0367 -13.0366 -13.0364
   -13.0345 -13.0344 -13.0339 -13.0338 -13.0282 -13.0280 -13.0275 -13.0274
    -8.7456  -8.6563  -8.3123  -8.2827  -8.2775  -8.2682  -8.2414  -8.2313
    -8.1996  -8.0918  -8.0499  -8.0428  -4.8574  -4.6017  -4.1295  -4.1286
    -4.1272  -4.1251  -4.1127  -4.1041  -4.0861  -4.0858  -4.0730  -4.0683
    -4.0676  -4.0604  -3.8548  -3.6233   0.0553   0.0850   0.0964   0.1560
     0.4194   0.6270   1.1038   1.1750   1.2874   1.4605   1.4704   1.5150
     1.5456   1.6660   1.8431   1.9272   1.9473   1.9760   2.0543   2.0643
     2.0837   2.1211   2.1594   2.1643   2.2559   2.2665   2.3197   2.3679
     2.4026   2.4104   2.4444   2.4625   2.6075   2.6711   2.9924   3.1411

          k = 0.0000 0.2344 0.0000 ( 49004 PWs)   bands (ev):

   -17.2574 -17.2567 -17.2557 -17.2553 -13.0920 -13.0885 -13.0870 -13.0855
   -13.0781 -13.0726 -13.0724 -13.0721 -13.0370 -13.0368 -13.0364 -13.0362
   -13.0345 -13.0343 -13.0341 -13.0339 -13.0282 -13.0278 -13.0277 -13.0274
    -8.7415  -8.5472  -8.4761  -8.3175  -8.2778  -8.2658  -8.2170  -8.1998
    -8.1697  -8.0831  -8.0672  -8.0556  -4.8473  -4.3659  -4.2302  -4.1337
    -4.1262  -4.1192  -4.1152  -4.1049  -4.0858  -4.0845  -4.0789  -4.0772
    -4.0695  -4.0325  -3.9949  -3.6355   0.0425   0.2035   0.2132   0.3101
     0.3769   0.4032   1.1721   1.2807   1.2813   1.3548   1.4330   1.4874
     1.5006   1.6029   1.7480   1.8659   1.9760   1.9764   2.0196   2.0434
     2.1145   2.1178   2.1658   2.1695   2.1853   2.2845   2.3310   2.3353
     2.3901   2.4070   2.4532   2.5112   2.6968   2.7230   2.7445   3.1316

          k = 0.0000 0.2344 0.2262 ( 48988 PWs)   bands (ev):

   -17.2572 -17.2569 -17.2556 -17.2554 -13.0885 -13.0875 -13.0871 -13.0830
   -13.0815 -13.0762 -13.0723 -13.0722 -13.0368 -13.0367 -13.0366 -13.0364
   -13.0344 -13.0344 -13.0340 -13.0339 -13.0281 -13.0279 -13.0276 -13.0275
    -8.7070  -8.6171  -8.4498  -8.3816  -8.2178  -8.2158  -8.2079  -8.1944
    -8.1808  -8.0963  -8.0790  -8.0710  -4.7340  -4.4909  -4.1580  -4.1288
    -4.1275  -4.1167  -4.1130  -4.1081  -4.0947  -4.0850  -4.0833  -4.0691
    -4.0650  -4.0521  -3.9696  -3.7785   0.2483   0.2711   0.3230   0.3478
     0.4914   0.5736   1.1299   1.2158   1.2591   1.3120   1.3267   1.4102
     1.5190   1.6057   1.6253   1.8246   1.8248   1.9366   1.9385   2.0250
     2.0378   2.1079   2.1171   2.1399   2.2670   2.3148   2.3555   2.3739
     2.4002   2.4056   2.4333   2.4809   2.6540   2.6932   2.7274   2.8812

          k = 0.0000-0.4688 0.0000 ( 48914 PWs)   bands (ev):

   -17.2566 -17.2566 -17.2560 -17.2560 -13.0897 -13.0897 -13.0801 -13.0801
   -13.0795 -13.0795 -13.0748 -13.0748 -13.0369 -13.0369 -13.0363 -13.0363
   -13.0343 -13.0343 -13.0341 -13.0341 -13.0280 -13.0280 -13.0276 -13.0276
    -8.6327  -8.6327  -8.4393  -8.4393  -8.2721  -8.2721  -8.1517  -8.1517
    -8.1339  -8.1339  -8.0894  -8.0894  -4.5338  -4.5338  -4.1661  -4.1661
    -4.1210  -4.1210  -4.0980  -4.0980  -4.0953  -4.0953  -4.0798  -4.0798
    -4.0603  -4.0603  -3.9291  -3.9291   0.1192   0.1192   0.6455   0.6455
     0.8320   0.8320   0.9125   0.9125   0.9949   0.9949   1.3219   1.3219
     1.6196   1.6196   1.7389   1.7389   1.8482   1.8482   2.0221   2.0221
     2.0928   2.0928   2.1266   2.1266   2.2236   2.2236   2.3411   2.3411
     2.3960   2.3960   2.4538   2.4538   2.6407   2.6407   2.8614   2.8614

          k = 0.0000-0.4688 0.2262 ( 48958 PWs)   bands (ev):

   -17.2564 -17.2564 -17.2561 -17.2561 -13.0862 -13.0862 -13.0807 -13.0807
   -13.0794 -13.0794 -13.0777 -13.0777 -13.0368 -13.0368 -13.0365 -13.0365
   -13.0342 -13.0342 -13.0342 -13.0342 -13.0279 -13.0279 -13.0277 -13.0277
    -8.5997  -8.5997  -8.5126  -8.5126  -8.2021  -8.2021  -8.1485  -8.1485
    -8.1378  -8.1378  -8.1180  -8.1180  -4.4301  -4.4301  -4.2253  -4.2253
    -4.1240  -4.1240  -4.1087  -4.1087  -4.0939  -4.0939  -4.0769  -4.0769
    -4.0572  -4.0572  -4.0026  -4.0026   0.4561   0.4561   0.6875   0.6875
     0.7671   0.7671   0.9271   0.9271   0.9684   0.9684   1.2250   1.2250
     1.6721   1.6721   1.7220   1.7220   1.7968   1.7968   1.8943   1.8943
     1.9429   1.9429   1.9813   1.9813   2.3236   2.3236   2.3890   2.3890
     2.4001   2.4001   2.4753   2.4753   2.6506   2.6506   2.7077   2.7077

          k = 0.2500 0.0000 0.0000 ( 48921 PWs)   bands (ev):

   -17.2575 -17.2569 -17.2556 -17.2552 -13.0920 -13.0885 -13.0870 -13.0855
   -13.0781 -13.0726 -13.0724 -13.0721 -13.0370 -13.0368 -13.0364 -13.0362
   -13.0345 -13.0343 -13.0341 -13.0339 -13.0282 -13.0278 -13.0277 -13.0274
    -8.7381  -8.5428  -8.4593  -8.2886  -8.2782  -8.2685  -8.2524  -8.2299
    -8.1557  -8.0875  -8.0727  -8.0552  -4.8452  -4.3579  -4.2062  -4.1254
    -4.1229  -4.1170  -4.1129  -4.1062  -4.1060  -4.0866  -4.0818  -4.0710
    -4.0628  -4.0396  -3.9908  -3.6387   0.0411   0.1860   0.2099   0.3214
     0.3356   0.4707   1.1413   1.1840   1.3134   1.3842   1.4993   1.5030
     1.5071   1.6120   1.8284   1.8516   1.9827   1.9907   2.0196   2.0361
     2.1184   2.1284   2.1763   2.2109   2.2184   2.2272   2.2411   2.3643
     2.3784   2.4082   2.4536   2.5066   2.6227   2.6831   2.7073   3.0516

          k = 0.2500 0.0000 0.2262 ( 48983 PWs)   bands (ev):

   -17.2573 -17.2570 -17.2555 -17.2553 -13.0885 -13.0875 -13.0871 -13.0830
   -13.0815 -13.0762 -13.0723 -13.0722 -13.0368 -13.0367 -13.0366 -13.0364
   -13.0344 -13.0344 -13.0340 -13.0339 -13.0281 -13.0279 -13.0276 -13.0275
    -8.7036  -8.6134  -8.4328  -8.3638  -8.2486  -8.2375  -8.2071  -8.1996
    -8.1677  -8.0964  -8.0831  -8.0757  -4.7310  -4.4850  -4.1405  -4.1329
    -4.1290  -4.1196  -4.0998  -4.0979  -4.0920  -4.0862  -4.0787  -4.0661
    -4.0630  -4.0603  -3.9761  -3.7860   0.2168   0.2622   0.3190   0.4158
     0.4754   0.5676   1.1060   1.1536   1.2184   1.3432   1.3887   1.3937
     1.5813   1.6217   1.6425   1.7978   1.9247   1.9426   2.0369   2.0379
     2.0645   2.0872   2.1536   2.1920   2.2501   2.2519   2.3114   2.3618
     2.3847   2.4013   2.4217   2.4750   2.5777   2.6021   2.6916   2.7746

          k = 0.2500 0.2344 0.0000 ( 48919 PWs)   bands (ev):

   -17.2572 -17.2566 -17.2558 -17.2554 -13.0924 -13.0888 -13.0859 -13.0833
   -13.0779 -13.0751 -13.0739 -13.0709 -13.0369 -13.0368 -13.0364 -13.0363
   -13.0344 -13.0343 -13.0341 -13.0340 -13.0281 -13.0278 -13.0278 -13.0275
    -8.7034  -8.5026  -8.5018  -8.2841  -8.2812  -8.2777  -8.2622  -8.2566
    -8.1445  -8.1053  -8.0954  -8.0347  -4.7435  -4.2955  -4.2861  -4.1226
    -4.1154  -4.1139  -4.1135  -4.1028  -4.0940  -4.0807  -4.0769  -4.0750
    -4.0717  -4.0228  -4.0112  -3.7283   0.0589   0.1010   0.1745   0.2472
     0.7067   0.8207   0.8570   1.0316   1.2600   1.2703   1.2952   1.5474
     1.5619   1.7079   1.7962   1.9167   1.9588   1.9748   2.0484   2.0657
     2.0706   2.1130   2.1336   2.1427   2.2198   2.2772   2.3222   2.3240
     2.3359   2.3614   2.4442   2.4739   2.6043   2.7120   2.7432   3.0525

          k = 0.2500 0.2344 0.2262 ( 48969 PWs)   bands (ev):

   -17.2570 -17.2568 -17.2557 -17.2555 -13.0896 -13.0865 -13.0857 -13.0823
   -13.0803 -13.0778 -13.0737 -13.0725 -13.0368 -13.0367 -13.0365 -13.0364
   -13.0344 -13.0343 -13.0341 -13.0340 -13.0280 -13.0279 -13.0277 -13.0275
    -8.6685  -8.5767  -8.4701  -8.3851  -8.2716  -8.2668  -8.2062  -8.1744
    -8.1499  -8.1151  -8.1003  -8.0641  -4.6344  -4.4012  -4.2081  -4.1236
    -4.1221  -4.1184  -4.1072  -4.0963  -4.0914  -4.0849  -4.0785  -4.0732
    -4.0652  -4.0445  -4.0128  -3.8643   0.1315   0.1936   0.4149   0.5240
     0.7570   0.7751   0.8968   0.9583   1.1339   1.2466   1.3097   1.3632
     1.5725   1.6816   1.7057   1.8091   1.8659   1.9111   1.9328   1.9669
     2.0739   2.1028   2.1815   2.2123   2.2581   2.3034   2.3197   2.3471
     2.3695   2.3818   2.4339   2.4529   2.5853   2.6138   2.6956   2.7991

          k = 0.2500-0.4688 0.0000 ( 48942 PWs)   bands (ev):

   -17.2565 -17.2565 -17.2560 -17.2560 -13.0911 -13.0911 -13.0824 -13.0824
   -13.0781 -13.0781 -13.0725 -13.0725 -13.0369 -13.0369 -13.0363 -13.0363
   -13.0343 -13.0343 -13.0341 -13.0341 -13.0279 -13.0279 -13.0276 -13.0276
    -8.6104  -8.6104  -8.3988  -8.3988  -8.2769  -8.2769  -8.2229  -8.2229
    -8.1827  -8.1827  -8.0432  -8.0432  -4.5100  -4.5100  -4.1491  -4.1491
    -4.1188  -4.1188  -4.0989  -4.0989  -4.0912  -4.0912  -4.0780  -4.0780
    -4.0651  -4.0651  -3.9076  -3.9076   0.1116   0.1116   0.3399   0.3399
     0.4857   0.4857   1.1637   1.1637   1.2416   1.2416   1.3595   1.3595
     1.6398   1.6398   1.8428   1.8428   1.9513   1.9513   2.0382   2.0382
     2.1175   2.1175   2.2096   2.2096   2.2147   2.2147   2.2692   2.2692
     2.3382   2.3382   2.3887   2.3887   2.6464   2.6464   2.8664   2.8664

          k = 0.2500-0.4688 0.2262 ( 48988 PWs)   bands (ev):

   -17.2564 -17.2564 -17.2561 -17.2561 -13.0882 -13.0882 -13.0837 -13.0837
   -13.0775 -13.0775 -13.0748 -13.0748 -13.0368 -13.0368 -13.0365 -13.0365
   -13.0342 -13.0342 -13.0342 -13.0342 -13.0279 -13.0279 -13.0277 -13.0277
    -8.5754  -8.5754  -8.4823  -8.4823  -8.2362  -8.2362  -8.2242  -8.2242
    -8.1443  -8.1443  -8.0719  -8.0719  -4.4097  -4.4097  -4.2134  -4.2134
    -4.1174  -4.1174  -4.1074  -4.1074  -4.0842  -4.0842  -4.0755  -4.0755
    -4.0549  -4.0549  -3.9922  -3.9922   0.3530   0.3530   0.4238   0.4238
     0.5098   0.5098   1.1599   1.1599   1.2084   1.2084   1.2342   1.2342
     1.5686   1.5686   1.7616   1.7616   1.8952   1.8952   1.9920   1.9920
     2.0839   2.0839   2.1178   2.1178   2.2993   2.2993   2.3358   2.3358
     2.3677   2.3677   2.4163   2.4163   2.6241   2.6241   2.6614   2.6614

          k =-0.5000 0.0000 0.0000 ( 48876 PWs)   bands (ev):

   -17.2569 -17.2569 -17.2556 -17.2556 -13.0897 -13.0897 -13.0801 -13.0801
   -13.0795 -13.0795 -13.0748 -13.0748 -13.0369 -13.0369 -13.0363 -13.0363
   -13.0343 -13.0343 -13.0341 -13.0341 -13.0280 -13.0280 -13.0276 -13.0276
    -8.6214  -8.6214  -8.4234  -8.4234  -8.2749  -8.2749  -8.1745  -8.1745
    -8.1521  -8.1521  -8.0836  -8.0836  -4.5242  -4.5242  -4.1630  -4.1630
    -4.1183  -4.1183  -4.0977  -4.0977  -4.0734  -4.0734  -4.0665  -4.0665
    -4.0509  -4.0509  -3.9588  -3.9588   0.1217   0.1217   0.5970   0.5970
     0.8082   0.8082   0.9253   0.9253   1.1235   1.1235   1.2684   1.2684
     1.5994   1.5994   1.8167   1.8167   1.9161   1.9161   2.0280   2.0280
     2.0580   2.0580   2.2127   2.2127   2.2231   2.2231   2.2828   2.2828
     2.3727   2.3727   2.4497   2.4497   2.5039   2.5039   2.7585   2.7585

          k =-0.5000 0.0000 0.2262 ( 48902 PWs)   bands (ev):

   -17.2569 -17.2569 -17.2556 -17.2556 -13.0862 -13.0862 -13.0808 -13.0808
   -13.0794 -13.0794 -13.0777 -13.0777 -13.0368 -13.0368 -13.0365 -13.0365
   -13.0342 -13.0342 -13.0342 -13.0342 -13.0279 -13.0279 -13.0277 -13.0277
    -8.5884  -8.5884  -8.5003  -8.5003  -8.2022  -8.2022  -8.1753  -8.1753
    -8.1509  -8.1509  -8.1124  -8.1124  -4.4178  -4.4178  -4.2084  -4.2084
    -4.1210  -4.1210  -4.1091  -4.1091  -4.0807  -4.0807  -4.0680  -4.0680
    -4.0483  -4.0483  -4.0347  -4.0347   0.4574   0.4574   0.6409   0.6409
     0.7493   0.7493   0.9435   0.9435   1.0362   1.0362   1.1712   1.1712
     1.6824   1.6824   1.8265   1.8265   1.8487   1.8487   1.9455   1.9455
     1.9593   1.9593   2.0862   2.0862   2.3078   2.3078   2.3318   2.3318
     2.3792   2.3792   2.4312   2.4312   2.5056   2.5056   2.5432   2.5432

          k =-0.5000 0.2344 0.0000 ( 48934 PWs)   bands (ev):

   -17.2568 -17.2568 -17.2558 -17.2558 -13.0911 -13.0911 -13.0824 -13.0824
   -13.0781 -13.0781 -13.0725 -13.0725 -13.0369 -13.0369 -13.0363 -13.0363
   -13.0343 -13.0343 -13.0341 -13.0341 -13.0279 -13.0279 -13.0276 -13.0276
    -8.6038  -8.6038  -8.3875  -8.3875  -8.2789  -8.2789  -8.2309  -8.2309
    -8.1952  -8.1952  -8.0440  -8.0440  -4.5049  -4.5049  -4.1510  -4.1510
    -4.1060  -4.1060  -4.1058  -4.1058  -4.0848  -4.0848  -4.0738  -4.0738
    -4.0577  -4.0577  -3.9195  -3.9195   0.1115   0.1115   0.3292   0.3292
     0.4957   0.4957   1.1209   1.1209   1.2511   1.2511   1.4293   1.4293
     1.6522   1.6522   1.8627   1.8627   1.9822   1.9822   2.0564   2.0564
     2.0825   2.0825   2.1898   2.1898   2.2038   2.2038   2.2602   2.2602
     2.3091   2.3091   2.3953   2.3953   2.6053   2.6053   2.8278   2.8278

          k =-0.5000 0.2344 0.2262 ( 48884 PWs)   bands (ev):

   -17.2567 -17.2567 -17.2558 -17.2558 -13.0882 -13.0882 -13.0837 -13.0837
   -13.0775 -13.0775 -13.0748 -13.0748 -13.0368 -13.0368 -13.0365 -13.0365
   -13.0342 -13.0342 -13.0341 -13.0341 -13.0279 -13.0279 -13.0277 -13.0277
    -8.5687  -8.5687  -8.4746  -8.4746  -8.2445  -8.2445  -8.2278  -8.2278
    -8.1507  -8.1507  -8.0734  -8.0734  -4.4035  -4.4035  -4.2064  -4.2064
    -4.1094  -4.1094  -4.1028  -4.1028  -4.0908  -4.0908  -4.0725  -4.0725
    -4.0485  -4.0485  -4.0054  -4.0054   0.3533   0.3533   0.4154   0.4154
     0.5095   0.5095   1.0982   1.0982   1.2366   1.2366   1.2743   1.2743
     1.5986   1.5986   1.7893   1.7893   1.9019   1.9019   2.0549   2.0549
     2.1089   2.1089   2.1563   2.1563   2.2588   2.2588   2.2840   2.2840
     2.3237   2.3237   2.4099   2.4099   2.5714   2.5714   2.5995   2.5995

          k =-0.5000-0.4688 0.0000 ( 48992 PWs)   bands (ev):

   -17.2565 -17.2565 -17.2560 -17.2560 -13.0923 -13.0923 -13.0840 -13.0840
   -13.0770 -13.0770 -13.0710 -13.0710 -13.0369 -13.0369 -13.0363 -13.0363
   -13.0343 -13.0343 -13.0341 -13.0341 -13.0279 -13.0279 -13.0276 -13.0276
    -8.5830  -8.5830  -8.3074  -8.3074  -8.2966  -8.2966  -8.2824  -8.2824
    -8.2606  -8.2606  -8.0207  -8.0207  -4.4860  -4.4860  -4.1332  -4.1332
    -4.1130  -4.1130  -4.1010  -4.1010  -4.0848  -4.0848  -4.0766  -4.0766
    -4.0724  -4.0724  -3.8869  -3.8869   0.0987   0.0987   0.1676   0.1676
     0.3236   0.3236   1.1673   1.1673   1.2946   1.2946   1.6257   1.6257
     1.6600   1.6600   1.9186   1.9186   1.9673   1.9673   2.0222   2.0222
     2.1198   2.1198   2.1729   2.1729   2.2109   2.2109   2.2295   2.2295
     2.2700   2.2700   2.4290   2.4290   2.6889   2.6889   2.9382   2.9382

          k =-0.5000-0.4688 0.2262 ( 48964 PWs)   bands (ev):

   -17.2564 -17.2564 -17.2561 -17.2561 -13.0895 -13.0895 -13.0853 -13.0853
   -13.0761 -13.0761 -13.0732 -13.0732 -13.0368 -13.0368 -13.0365 -13.0365
   -13.0342 -13.0342 -13.0341 -13.0341 -13.0279 -13.0279 -13.0277 -13.0277
    -8.5448  -8.5448  -8.4394  -8.4394  -8.2820  -8.2820  -8.2814  -8.2814
    -8.1488  -8.1488  -8.0535  -8.0535  -4.3893  -4.3893  -4.2026  -4.2026
    -4.1097  -4.1097  -4.1075  -4.1075  -4.0735  -4.0735  -4.0643  -4.0643
    -4.0630  -4.0630  -3.9803  -3.9803   0.1997   0.1997   0.2606   0.2606
     0.4838   0.4838   1.1845   1.1845   1.2339   1.2339   1.3476   1.3476
     1.6256   1.6256   1.7754   1.7754   2.0387   2.0387   2.0645   2.0645
     2.1324   2.1324   2.1334   2.1334   2.2219   2.2219   2.2299   2.2299
     2.3438   2.3438   2.4281   2.4281   2.6601   2.6601   2.7189   2.7189

     highest occupied level (ev):     3.4166

!    total energy              =   -8165.86055735 Ry
     estimated scf accuracy    <          5.2E-12 Ry

     The total energy is the sum of the following terms:
     one-electron contribution =    -324.91075447 Ry
     hartree contribution      =     251.22125549 Ry
     xc contribution           =    -792.77474116 Ry
     ewald contribution        =    -649.77736731 Ry
     one-center paw contrib.   =   -6649.61894990 Ry

     convergence has been achieved in  22 iterations

     Forces acting on atoms (cartesian axes, Ry/au):

     atom    1 type  1   force =     0.00024058   -0.00019763    0.00000000
     atom    2 type  1   force =    -0.00024058    0.00019763    0.00000000
     atom    3 type  1   force =     0.00024058    0.00019763    0.00000000
     atom    4 type  1   force =    -0.00024058   -0.00019763   -0.00000000
     atom    5 type  2   force =     0.00000000    0.00000000    0.00000000
     atom    6 type  2   force =     0.00000000    0.00000000    0.00000000
     atom    7 type  2   force =     0.00000000    0.00000000    0.00000000
     atom    8 type  2   force =     0.00000000    0.00000000    0.00000000
     atom    9 type  3   force =    -0.00070294   -0.00018536    0.00000000
     atom   10 type  3   force =     0.00070294    0.00018536    0.00000000
     atom   11 type  3   force =    -0.00070294    0.00018536    0.00000000
     atom   12 type  3   force =     0.00070294   -0.00018536    0.00000000
     atom   13 type  3   force =     0.00005941   -0.00002786   -0.00001849
     atom   14 type  3   force =    -0.00005941    0.00002786   -0.00001849
     atom   15 type  3   force =     0.00005941    0.00002786    0.00001849
     atom   16 type  3   force =    -0.00005941   -0.00002786    0.00001849
     atom   17 type  3   force =    -0.00005941    0.00002786    0.00001849
     atom   18 type  3   force =     0.00005941   -0.00002786    0.00001849
     atom   19 type  3   force =    -0.00005941   -0.00002786   -0.00001849
     atom   20 type  3   force =     0.00005941    0.00002786   -0.00001849

     Total force =     0.001593     Total SCF correction =     0.000000


     Computing stress (Cartesian axis) and pressure

          total   stress  (Ry/bohr**3)                   (kbar)     P=       -0.04
  -0.00000067   0.00000000   0.00000000           -0.10        0.00        0.00
   0.00000000   0.00000210   0.00000000            0.00        0.31        0.00
   0.00000000   0.00000000  -0.00000226            0.00        0.00       -0.33


     number of scf cycles    =   4
     number of bfgs steps    =   3

     enthalpy old            =   -8165.8605484473 Ry
     enthalpy new            =   -8165.8605573540 Ry

     CASE: enthalpy_new < enthalpy_old

     new trust radius        =       0.0032195666 bohr
     new conv_thr            =            1.0E-11 Ry

     new unit-cell volume =   6236.51973 a.u.^3 (   924.15688 Ang^3 )
     density =      5.18070 g/cm^3

CELL_PARAMETERS (angstrom)
   8.376530859   0.000000000   0.000000000
   0.000000000   8.936639769   0.000000000
   0.000000000   0.000000000  12.345459378

ATOMIC_POSITIONS (angstrom)
Cs            3.9097194948        3.7253659843        3.0863648446
Cs            4.4668113643        5.2112737847        9.2590945337
Cs           -0.2785459347        0.7429539002        9.2590945337
Cs            8.6550767938        8.1936858688        3.0863648446
Pb            4.1882654296        0.0000000000       -0.0000000000
Pb            4.1882654296       -0.0000000000        6.1727296892
Pb            0.0000000000        4.4683198845        0.0000000000
Pb           -0.0000000000        4.4683198845        6.1727296892
I             4.9081512236        0.0655439093        3.0863648446
I             3.4683796355        8.8710958597        9.2590945337
I             0.7198857941        4.4027759752        9.2590945337
I             7.6566450650        4.5338637938        3.0863648446
I             5.7599714295        2.7290974799       11.8473872905
I             2.6165594296        6.2075422891        5.6746576014
I             1.5717060000        1.7392224046        0.4980720878
I             6.8048248591        7.1974173643        6.6708017769
I             2.6165594296        6.2075422891        0.4980720878
I             5.7599714295        2.7290974799        6.6708017769
I             6.8048248591        7.1974173643       11.8473872905
I             1.5717060000        1.7392224046        5.6746576014



     Writing output data file ./tmp/unit_tight.save/
     NEW-OLD atomic charge density approx. for the potential
     extrapolated charge  175.98447, renormalised to  176.00000

     total cpu time spent up to now is     1370.6 secs

     Self-consistent Calculation

     iteration #  1     ecut=    60.00 Ry     beta= 0.30
     Davidson diagonalization with overlap
     ethr =  1.00E-06,  avg # of iterations =  2.0

     Threshold (ethr) on eigenvalues was too large:
     Diagonalizing with lowered threshold

     Davidson diagonalization with overlap
     ethr =  1.20E-09,  avg # of iterations =  6.7

     total cpu time spent up to now is     1406.2 secs

     total energy              =   -8165.86056591 Ry
     estimated scf accuracy    <       0.00000567 Ry

     iteration #  2     ecut=    60.00 Ry     beta= 0.30
     Davidson diagonalization with overlap
     ethr =  3.22E-09,  avg # of iterations =  5.0

     total cpu time spent up to now is     1426.2 secs

     total energy              =   -8165.86056990 Ry
     estimated scf accuracy    <       0.00000121 Ry

     iteration #  3     ecut=    60.00 Ry     beta= 0.30
     Davidson diagonalization with overlap
     ethr =  6.87E-10,  avg # of iterations =  1.3

     total cpu time spent up to now is     1438.7 secs

     total energy              =   -8165.86056978 Ry
     estimated scf accuracy    <       0.00000062 Ry

     iteration #  4     ecut=    60.00 Ry     beta= 0.30
     Davidson diagonalization with overlap
     ethr =  3.55E-10,  avg # of iterations =  3.8

     total cpu time spent up to now is     1453.9 secs

     total energy              =   -8165.86056993 Ry
     estimated scf accuracy    <       0.00000002 Ry

     iteration #  5     ecut=    60.00 Ry     beta= 0.30
     Davidson diagonalization with overlap
     ethr =  1.32E-11,  avg # of iterations =  6.0

     total cpu time spent up to now is     1474.1 secs

     total energy              =   -8165.86056996 Ry
     estimated scf accuracy    <       0.00000005 Ry

     iteration #  6     ecut=    60.00 Ry     beta= 0.30
     Davidson diagonalization with overlap
     ethr =  1.32E-11,  avg # of iterations =  2.0

     total cpu time spent up to now is     1487.0 secs

     total energy              =   -8165.86056995 Ry
     estimated scf accuracy    <       0.00000002 Ry

     iteration #  7     ecut=    60.00 Ry     beta= 0.30
     Davidson diagonalization with overlap
     ethr =  1.14E-11,  avg # of iterations =  4.8

     total cpu time spent up to now is     1505.5 secs

     total energy              =   -8165.86056997 Ry
     estimated scf accuracy    <       0.00000001 Ry

     iteration #  8     ecut=    60.00 Ry     beta= 0.30
     Davidson diagonalization with overlap
     ethr =  7.87E-12,  avg # of iterations =  2.1

     total cpu time spent up to now is     1518.7 secs

     total energy              =   -8165.86056996 Ry
     estimated scf accuracy    <       0.00000002 Ry

     iteration #  9     ecut=    60.00 Ry     beta= 0.30
     Davidson diagonalization with overlap
     ethr =  7.87E-12,  avg # of iterations =  2.0

     total cpu time spent up to now is     1532.7 secs

     total energy              =   -8165.86056996 Ry
     estimated scf accuracy    <          2.2E-09 Ry

     iteration # 10     ecut=    60.00 Ry     beta= 0.30
     Davidson diagonalization with overlap
     ethr =  1.26E-12,  avg # of iterations =  1.5

     total cpu time spent up to now is     1545.3 secs

     total energy              =   -8165.86056996 Ry
     estimated scf accuracy    <          1.9E-09 Ry

     iteration # 11     ecut=    60.00 Ry     beta= 0.30
     Davidson diagonalization with overlap
     ethr =  1.08E-12,  avg # of iterations =  2.0

     total cpu time spent up to now is     1558.2 secs

     total energy              =   -8165.86056996 Ry
     estimated scf accuracy    <          2.5E-09 Ry

     iteration # 12     ecut=    60.00 Ry     beta= 0.30
     Davidson diagonalization with overlap
     ethr =  1.08E-12,  avg # of iterations =  2.0

     total cpu time spent up to now is     1571.1 secs

     total energy              =   -8165.86056996 Ry
     estimated scf accuracy    <          7.6E-10 Ry

     iteration # 13     ecut=    60.00 Ry     beta= 0.30
     Davidson diagonalization with overlap
     ethr =  4.34E-13,  avg # of iterations =  2.0

     total cpu time spent up to now is     1584.6 secs

     total energy              =   -8165.86056996 Ry
     estimated scf accuracy    <          2.9E-10 Ry

     iteration # 14     ecut=    60.00 Ry     beta= 0.30
     Davidson diagonalization with overlap
     ethr =  1.67E-13,  avg # of iterations =  4.1

     total cpu time spent up to now is     1601.9 secs

     total energy              =   -8165.86056996 Ry
     estimated scf accuracy    <          2.8E-10 Ry

     iteration # 15     ecut=    60.00 Ry     beta= 0.30
     Davidson diagonalization with overlap
     ethr =  1.61E-13,  avg # of iterations =  1.0

     total cpu time spent up to now is     1614.1 secs

     total energy              =   -8165.86056996 Ry
     estimated scf accuracy    <          1.7E-10 Ry

     iteration # 16     ecut=    60.00 Ry     beta= 0.30
     Davidson diagonalization with overlap
     ethr =  1.00E-13,  avg # of iterations =  2.6

     total cpu time spent up to now is     1628.7 secs

     total energy              =   -8165.86056996 Ry
     estimated scf accuracy    <          2.3E-11 Ry

     iteration # 17     ecut=    60.00 Ry     beta= 0.30
     Davidson diagonalization with overlap
     ethr =  1.00E-13,  avg # of iterations =  1.0

     total cpu time spent up to now is     1640.8 secs

     total energy              =   -8165.86056996 Ry
     estimated scf accuracy    <          1.5E-11 Ry

     iteration # 18     ecut=    60.00 Ry     beta= 0.30
     Davidson diagonalization with overlap
     ethr =  1.00E-13,  avg # of iterations =  1.0

     total cpu time spent up to now is     1652.8 secs

     total energy              =   -8165.86056996 Ry
     estimated scf accuracy    <          1.5E-11 Ry

     iteration # 19     ecut=    60.00 Ry     beta= 0.30
     Davidson diagonalization with overlap
     ethr =  1.00E-13,  avg # of iterations =  1.0

     total cpu time spent up to now is     1664.9 secs

     total energy              =   -8165.86056996 Ry
     estimated scf accuracy    <          2.4E-11 Ry

     iteration # 20     ecut=    60.00 Ry     beta= 0.30
     Davidson diagonalization with overlap
     ethr =  1.00E-13,  avg # of iterations =  1.0

     total cpu time spent up to now is     1676.9 secs

     total energy              =   -8165.86056996 Ry
     estimated scf accuracy    <          2.2E-11 Ry

     iteration # 21     ecut=    60.00 Ry     beta= 0.30
     Davidson diagonalization with overlap
     ethr =  1.00E-13,  avg # of iterations =  2.0

     total cpu time spent up to now is     1689.7 secs

     End of self-consistent calculation

          k = 0.0000 0.0000 0.0000 ( 49019 PWs)   bands (ev):

   -17.2570 -17.2563 -17.2546 -17.2542 -13.0920 -13.0893 -13.0888 -13.0847
   -13.0780 -13.0707 -13.0683 -13.0681 -13.0359 -13.0357 -13.0353 -13.0351
   -13.0335 -13.0333 -13.0329 -13.0327 -13.0272 -13.0268 -13.0265 -13.0262
    -8.7797  -8.5875  -8.3283  -8.2857  -8.2819  -8.2626  -8.2606  -8.2404
    -8.2255  -8.0530  -8.0472  -8.0387  -4.9762  -4.4644  -4.1287  -4.1244
    -4.1208  -4.1185  -4.1154  -4.1114  -4.1060  -4.1011  -4.0919  -4.0699
    -4.0577  -4.0501  -3.9133  -3.4669  -0.0142   0.0311   0.0532   0.1842
     0.1900   0.2720   1.1054   1.3982   1.4092   1.4297   1.4436   1.4950
     1.7271   1.9117   1.9279   1.9294   2.0142   2.0250   2.0257   2.0600
     2.0672   2.0750   2.1016   2.1017   2.1582   2.3562   2.3776   2.4171
     2.4400   2.4442   2.4656   2.4939   2.6861   2.6967   2.9646   3.4182

          k = 0.0000 0.0000 0.2262 ( 48974 PWs)   bands (ev):

   -17.2568 -17.2564 -17.2545 -17.2543 -13.0890 -13.0889 -13.0885 -13.0815
   -13.0814 -13.0743 -13.0682 -13.0682 -13.0358 -13.0356 -13.0355 -13.0353
   -13.0334 -13.0334 -13.0328 -13.0328 -13.0271 -13.0269 -13.0264 -13.0263
    -8.7452  -8.6555  -8.3129  -8.2826  -8.2773  -8.2672  -8.2402  -8.2300
    -8.1996  -8.0914  -8.0489  -8.0418  -4.8568  -4.6003  -4.1287  -4.1278
    -4.1264  -4.1243  -4.1119  -4.1033  -4.0854  -4.0850  -4.0722  -4.0675
    -4.0669  -4.0596  -3.8548  -3.6225   0.0560   0.0862   0.0973   0.1574
     0.4190   0.6259   1.1048   1.1760   1.2884   1.4609   1.4706   1.5151
     1.5461   1.6663   1.8438   1.9283   1.9475   1.9765   2.0549   2.0649
     2.0838   2.1215   2.1600   2.1647   2.2569   2.2671   2.3203   2.3688
     2.4028   2.4113   2.4455   2.4635   2.6086   2.6721   2.9928   3.1418

          k = 0.0000 0.2344 0.0000 ( 49004 PWs)   bands (ev):

   -17.2566 -17.2559 -17.2550 -17.2545 -13.0910 -13.0875 -13.0859 -13.0845
   -13.0771 -13.0717 -13.0712 -13.0710 -13.0359 -13.0357 -13.0353 -13.0352
   -13.0334 -13.0332 -13.0330 -13.0328 -13.0271 -13.0267 -13.0266 -13.0263
    -8.7412  -8.5460  -8.4760  -8.3164  -8.2783  -8.2664  -8.2159  -8.1986
    -8.1694  -8.0820  -8.0662  -8.0551  -4.8470  -4.3642  -4.2299  -4.1329
    -4.1253  -4.1185  -4.1144  -4.1041  -4.0850  -4.0838  -4.0782  -4.0764
    -4.0687  -4.0317  -3.9943  -3.6341   0.0412   0.2022   0.2142   0.3106
     0.3779   0.4040   1.1728   1.2811   1.2815   1.3556   1.4341   1.4875
     1.5016   1.6033   1.7488   1.8656   1.9772   1.9773   2.0206   2.0444
     2.1151   2.1184   2.1663   2.1696   2.1862   2.2846   2.3321   2.3363
     2.3910   2.4079   2.4543   2.5122   2.6977   2.7238   2.7464   3.1336

          k = 0.0000 0.2344 0.2262 ( 48988 PWs)   bands (ev):

   -17.2564 -17.2561 -17.2548 -17.2546 -13.0875 -13.0864 -13.0860 -13.0820
   -13.0805 -13.0752 -13.0712 -13.0711 -13.0358 -13.0356 -13.0355 -13.0353
   -13.0334 -13.0333 -13.0329 -13.0329 -13.0270 -13.0268 -13.0265 -13.0264
    -8.7066  -8.6164  -8.4497  -8.3813  -8.2176  -8.2147  -8.2070  -8.1940
    -8.1805  -8.0959  -8.0780  -8.0699  -4.7335  -4.4896  -4.1574  -4.1280
    -4.1267  -4.1159  -4.1122  -4.1073  -4.0939  -4.0843  -4.0825  -4.0684
    -4.0642  -4.0514  -3.9693  -3.7776   0.2494   0.2713   0.3244   0.3485
     0.4914   0.5725   1.1308   1.2166   1.2597   1.3124   1.3273   1.4109
     1.5197   1.6062   1.6257   1.8248   1.8256   1.9368   1.9394   2.0254
     2.0384   2.1084   2.1177   2.1405   2.2679   2.3155   2.3564   2.3745
     2.4012   2.4062   2.4341   2.4819   2.6551   2.6941   2.7282   2.8822

          k = 0.0000-0.4687 0.0000 ( 48914 PWs)   bands (ev):

   -17.2558 -17.2558 -17.2552 -17.2552 -13.0888 -13.0888 -13.0790 -13.0790
   -13.0784 -13.0784 -13.0738 -13.0738 -13.0358 -13.0358 -13.0352 -13.0352
   -13.0332 -13.0332 -13.0330 -13.0330 -13.0268 -13.0268 -13.0265 -13.0265
    -8.6325  -8.6325  -8.4382  -8.4382  -8.2726  -8.2726  -8.1506  -8.1506
    -8.1328  -8.1328  -8.0890  -8.0890  -4.5337  -4.5337  -4.1651  -4.1651
    -4.1201  -4.1201  -4.0971  -4.0971  -4.0946  -4.0946  -4.0791  -4.0791
    -4.0595  -4.0595  -3.9278  -3.9278   0.1178   0.1178   0.6461   0.6461
     0.8330   0.8330   0.9129   0.9129   0.9958   0.9958   1.3222   1.3222
     1.6196   1.6196   1.7395   1.7395   1.8490   1.8490   2.0230   2.0230
     2.0937   2.0937   2.1273   2.1273   2.2245   2.2245   2.3423   2.3423
     2.3966   2.3966   2.4545   2.4545   2.6417   2.6417   2.8634   2.8634

          k = 0.0000-0.4687 0.2262 ( 48958 PWs)   bands (ev):

   -17.2556 -17.2556 -17.2554 -17.2554 -13.0853 -13.0853 -13.0797 -13.0797
   -13.0783 -13.0783 -13.0767 -13.0767 -13.0357 -13.0357 -13.0354 -13.0354
   -13.0332 -13.0332 -13.0331 -13.0331 -13.0268 -13.0268 -13.0266 -13.0266
    -8.5995  -8.5995  -8.5121  -8.5121  -8.2020  -8.2020  -8.1475  -8.1475
    -8.1367  -8.1367  -8.1176  -8.1176  -4.4297  -4.4297  -4.2242  -4.2242
    -4.1232  -4.1232  -4.1079  -4.1079  -4.0931  -4.0931  -4.0761  -4.0761
    -4.0565  -4.0565  -4.0018  -4.0018   0.4555   0.4555   0.6882   0.6882
     0.7680   0.7680   0.9279   0.9279   0.9689   0.9689   1.2256   1.2256
     1.6725   1.6725   1.7224   1.7224   1.7973   1.7973   1.8950   1.8950
     1.9437   1.9437   1.9819   1.9819   2.3246   2.3246   2.3899   2.3899
     2.4008   2.4008   2.4759   2.4759   2.6515   2.6515   2.7089   2.7089

          k = 0.2500 0.0000 0.0000 ( 48921 PWs)   bands (ev):

   -17.2567 -17.2561 -17.2548 -17.2544 -13.0910 -13.0875 -13.0859 -13.0845
   -13.0771 -13.0716 -13.0713 -13.0710 -13.0359 -13.0357 -13.0353 -13.0352
   -13.0334 -13.0332 -13.0330 -13.0328 -13.0271 -13.0267 -13.0266 -13.0263
    -8.7378  -8.5416  -8.4593  -8.2874  -8.2787  -8.2689  -8.2515  -8.2289
    -8.1552  -8.0865  -8.0717  -8.0547  -4.8449  -4.3562  -4.2061  -4.1246
    -4.1220  -4.1161  -4.1121  -4.1054  -4.1052  -4.0859  -4.0810  -4.0703
    -4.0620  -4.0387  -3.9903  -3.6373   0.0399   0.1866   0.2083   0.3223
     0.3365   0.4718   1.1417   1.1848   1.3141   1.3845   1.5005   1.5040
     1.5073   1.6121   1.8292   1.8518   1.9838   1.9916   2.0208   2.0367
     2.1194   2.1288   2.1769   2.2111   2.2189   2.2280   2.2422   2.3653
     2.3792   2.4089   2.4542   2.5076   2.6234   2.6837   2.7090   3.0533

          k = 0.2500 0.0000 0.2262 ( 48983 PWs)   bands (ev):

   -17.2565 -17.2562 -17.2547 -17.2545 -13.0875 -13.0864 -13.0860 -13.0820
   -13.0805 -13.0752 -13.0712 -13.0711 -13.0358 -13.0356 -13.0355 -13.0353
   -13.0334 -13.0333 -13.0329 -13.0329 -13.0270 -13.0268 -13.0265 -13.0264
    -8.7032  -8.6127  -8.4328  -8.3636  -8.2476  -8.2366  -8.2068  -8.1995
    -8.1672  -8.0960  -8.0821  -8.0747  -4.7304  -4.4837  -4.1398  -4.1321
    -4.1282  -4.1188  -4.0989  -4.0971  -4.0912  -4.0854  -4.0780  -4.0654
    -4.0622  -4.0595  -3.9757  -3.7852   0.2175   0.2628   0.3197   0.4171
     0.4754   0.5666   1.1069   1.1541   1.2191   1.3437   1.3894   1.3942
     1.5819   1.6221   1.6430   1.7982   1.9255   1.9430   2.0374   2.0388
     2.0653   2.0877   2.1545   2.1929   2.2504   2.2525   2.3122   2.3628
     2.3855   2.4016   2.4226   2.4760   2.5787   2.6029   2.6922   2.7753

          k = 0.2500 0.2344 0.0000 ( 48919 PWs)   bands (ev):

   -17.2564 -17.2559 -17.2551 -17.2546 -13.0914 -13.0879 -13.0848 -13.0822
   -13.0769 -13.0741 -13.0728 -13.0698 -13.0359 -13.0358 -13.0353 -13.0352
   -13.0333 -13.0332 -13.0330 -13.0329 -13.0270 -13.0267 -13.0267 -13.0264
    -8.7032  -8.5018  -8.5014  -8.2831  -8.2807  -8.2782  -8.2621  -8.2554
    -8.1437  -8.1043  -8.0948  -8.0340  -4.7433  -4.2954  -4.2845  -4.1218
    -4.1145  -4.1131  -4.1127  -4.1019  -4.0932  -4.0799  -4.0762  -4.0743
    -4.0709  -4.0221  -4.0102  -3.7269   0.0576   0.1017   0.1728   0.2483
     0.7073   0.8211   0.8579   1.0326   1.2606   1.2707   1.2955   1.5476
     1.5629   1.7082   1.7969   1.9176   1.9592   1.9759   2.0492   2.0658
     2.0718   2.1140   2.1343   2.1433   2.2203   2.2780   2.3229   2.3249
     2.3369   2.3621   2.4448   2.4749   2.6050   2.7127   2.7451   3.0545

          k = 0.2500 0.2344 0.2262 ( 48969 PWs)   bands (ev):

   -17.2563 -17.2560 -17.2550 -17.2548 -13.0886 -13.0854 -13.0848 -13.0812
   -13.0793 -13.0768 -13.0726 -13.0714 -13.0357 -13.0356 -13.0354 -13.0353
   -13.0333 -13.0332 -13.0330 -13.0329 -13.0269 -13.0268 -13.0266 -13.0264
    -8.6682  -8.5761  -8.4701  -8.3850  -8.2705  -8.2658  -8.2061  -8.1740
    -8.1492  -8.1146  -8.0994  -8.0635  -4.6339  -4.4000  -4.2076  -4.1228
    -4.1213  -4.1176  -4.1064  -4.0955  -4.0906  -4.0842  -4.0778  -4.0724
    -4.0644  -4.0437  -4.0122  -3.8634   0.1324   0.1947   0.4144   0.5234
     0.7576   0.7757   0.8974   0.9591   1.1347   1.2472   1.3102   1.3637
     1.5732   1.6819   1.7065   1.8094   1.8666   1.9119   1.9333   1.9677
     2.0744   2.1031   2.1822   2.2129   2.2590   2.3042   2.3205   2.3477
     2.3702   2.3828   2.4347   2.4537   2.5862   2.6148   2.6963   2.8000

          k = 0.2500-0.4687 0.0000 ( 48942 PWs)   bands (ev):

   -17.2558 -17.2558 -17.2552 -17.2552 -13.0902 -13.0902 -13.0813 -13.0813
   -13.0770 -13.0770 -13.0715 -13.0715 -13.0358 -13.0358 -13.0352 -13.0352
   -13.0332 -13.0332 -13.0330 -13.0330 -13.0268 -13.0268 -13.0265 -13.0265
    -8.6103  -8.6103  -8.3977  -8.3977  -8.2773  -8.2773  -8.2220  -8.2220
    -8.1816  -8.1816  -8.0426  -8.0426  -4.5099  -4.5099  -4.1481  -4.1481
    -4.1179  -4.1179  -4.0981  -4.0981  -4.0904  -4.0904  -4.0773  -4.0773
    -4.0643  -4.0643  -3.9063  -3.9063   0.1102   0.1102   0.3406   0.3406
     0.4869   0.4869   1.1641   1.1641   1.2418   1.2418   1.3604   1.3604
     1.6402   1.6402   1.8435   1.8435   1.9523   1.9523   2.0386   2.0386
     2.1182   2.1182   2.2103   2.2103   2.2155   2.2155   2.2703   2.2703
     2.3389   2.3389   2.3896   2.3896   2.6472   2.6472   2.8685   2.8685

          k = 0.2500-0.4687 0.2262 ( 48988 PWs)   bands (ev):

   -17.2556 -17.2556 -17.2553 -17.2553 -13.0872 -13.0872 -13.0826 -13.0826
   -13.0764 -13.0764 -13.0738 -13.0738 -13.0357 -13.0357 -13.0354 -13.0354
   -13.0332 -13.0332 -13.0331 -13.0331 -13.0268 -13.0268 -13.0266 -13.0266
    -8.5753  -8.5753  -8.4818  -8.4818  -8.2356  -8.2356  -8.2233  -8.2233
    -8.1436  -8.1436  -8.0713  -8.0713  -4.4093  -4.4093  -4.2124  -4.2124
    -4.1166  -4.1166  -4.1066  -4.1066  -4.0834  -4.0834  -4.0747  -4.0747
    -4.0542  -4.0542  -3.9913  -3.9913   0.3534   0.3534   0.4243   0.4243
     0.5099   0.5099   1.1605   1.1605   1.2089   1.2089   1.2346   1.2346
     1.5692   1.5692   1.7622   1.7622   1.8954   1.8954   1.9927   1.9927
     2.0845   2.0845   2.1184   2.1184   2.3004   2.3004   2.3364   2.3364
     2.3688   2.3688   2.4169   2.4169   2.6250   2.6250   2.6625   2.6625

          k =-0.5001 0.0000 0.0000 ( 48876 PWs)   bands (ev):

   -17.2561 -17.2561 -17.2548 -17.2548 -13.0888 -13.0888 -13.0790 -13.0790
   -13.0784 -13.0784 -13.0738 -13.0738 -13.0358 -13.0358 -13.0352 -13.0352
   -13.0332 -13.0332 -13.0330 -13.0330 -13.0269 -13.0269 -13.0265 -13.0265
    -8.6212  -8.6212  -8.4222  -8.4222  -8.2754  -8.2754  -8.1735  -8.1735
    -8.1511  -8.1511  -8.0831  -8.0831  -4.5240  -4.5240  -4.1619  -4.1619
    -4.1175  -4.1175  -4.0969  -4.0969  -4.0727  -4.0727  -4.0658  -4.0658
    -4.0502  -4.0502  -3.9574  -3.9574   0.1202   0.1202   0.5976   0.5976
     0.8093   0.8093   0.9255   0.9255   1.1244   1.1244   1.2689   1.2689
     1.5997   1.5997   1.8175   1.8175   1.9173   1.9173   2.0291   2.0291
     2.0590   2.0590   2.2132   2.2132   2.2241   2.2241   2.2835   2.2835
     2.3730   2.3730   2.4503   2.4503   2.5045   2.5045   2.7603   2.7603

          k =-0.5001 0.0000 0.2262 ( 48902 PWs)   bands (ev):

   -17.2561 -17.2561 -17.2549 -17.2549 -13.0853 -13.0853 -13.0797 -13.0797
   -13.0783 -13.0783 -13.0767 -13.0767 -13.0357 -13.0357 -13.0354 -13.0354
   -13.0332 -13.0332 -13.0331 -13.0331 -13.0268 -13.0268 -13.0266 -13.0266
    -8.5881  -8.5881  -8.4997  -8.4997  -8.2021  -8.2021  -8.1744  -8.1744
    -8.1499  -8.1499  -8.1120  -8.1120  -4.4174  -4.4174  -4.2073  -4.2073
    -4.1202  -4.1202  -4.1083  -4.1083  -4.0799  -4.0799  -4.0673  -4.0673
    -4.0475  -4.0475  -4.0338  -4.0338   0.4567   0.4567   0.6415   0.6415
     0.7502   0.7502   0.9437   0.9437   1.0368   1.0368   1.1720   1.1720
     1.6827   1.6827   1.8273   1.8273   1.8493   1.8493   1.9466   1.9466
     1.9605   1.9605   2.0868   2.0868   2.3084   2.3084   2.3326   2.3326
     2.3797   2.3797   2.4318   2.4318   2.5062   2.5062   2.5440   2.5440

          k =-0.5001 0.2344 0.0000 ( 48934 PWs)   bands (ev):

   -17.2560 -17.2560 -17.2550 -17.2550 -13.0902 -13.0902 -13.0813 -13.0813
   -13.0770 -13.0770 -13.0715 -13.0715 -13.0358 -13.0358 -13.0352 -13.0352
   -13.0332 -13.0332 -13.0330 -13.0330 -13.0268 -13.0268 -13.0265 -13.0265
    -8.6037  -8.6037  -8.3863  -8.3863  -8.2793  -8.2793  -8.2300  -8.2300
    -8.1942  -8.1942  -8.0434  -8.0434  -4.5048  -4.5048  -4.1500  -4.1500
    -4.1052  -4.1052  -4.1050  -4.1050  -4.0841  -4.0841  -4.0730  -4.0730
    -4.0570  -4.0570  -3.9182  -3.9182   0.1100   0.1100   0.3298   0.3298
     0.4969   0.4969   1.1213   1.1213   1.2513   1.2513   1.4302   1.4302
     1.6526   1.6526   1.8633   1.8633   1.9832   1.9832   2.0576   2.0576
     2.0832   2.0832   2.1903   2.1903   2.2046   2.2046   2.2610   2.2610
     2.3097   2.3097   2.3959   2.3959   2.6061   2.6061   2.8298   2.8298

          k =-0.5001 0.2344 0.2262 ( 48884 PWs)   bands (ev):

   -17.2559 -17.2559 -17.2550 -17.2550 -13.0872 -13.0872 -13.0826 -13.0826
   -13.0764 -13.0764 -13.0738 -13.0738 -13.0357 -13.0357 -13.0354 -13.0354
   -13.0331 -13.0331 -13.0331 -13.0331 -13.0268 -13.0268 -13.0266 -13.0266
    -8.5686  -8.5686  -8.4741  -8.4741  -8.2438  -8.2438  -8.2269  -8.2269
    -8.1502  -8.1502  -8.0728  -8.0728  -4.4030  -4.4030  -4.2054  -4.2054
    -4.1086  -4.1086  -4.1020  -4.1020  -4.0901  -4.0901  -4.0718  -4.0718
    -4.0477  -4.0477  -4.0045  -4.0045   0.3539   0.3539   0.4157   0.4157
     0.5098   0.5098   1.0988   1.0988   1.2370   1.2370   1.2749   1.2749
     1.5992   1.5992   1.7900   1.7900   1.9024   1.9024   2.0556   2.0556
     2.1097   2.1097   2.1571   2.1571   2.2595   2.2595   2.2847   2.2847
     2.3244   2.3244   2.4106   2.4106   2.5723   2.5723   2.6004   2.6004

          k =-0.5001-0.4687 0.0000 ( 48992 PWs)   bands (ev):

   -17.2557 -17.2557 -17.2552 -17.2552 -13.0913 -13.0913 -13.0829 -13.0829
   -13.0759 -13.0759 -13.0699 -13.0699 -13.0358 -13.0358 -13.0352 -13.0352
   -13.0332 -13.0332 -13.0330 -13.0330 -13.0268 -13.0268 -13.0265 -13.0265
    -8.5830  -8.5830  -8.3063  -8.3063  -8.2963  -8.2963  -8.2813  -8.2813
    -8.2604  -8.2604  -8.0201  -8.0201  -4.4859  -4.4859  -4.1322  -4.1322
    -4.1122  -4.1122  -4.1002  -4.1002  -4.0841  -4.0841  -4.0758  -4.0758
    -4.0716  -4.0716  -3.8855  -3.8855   0.0973   0.0973   0.1683   0.1683
     0.3248   0.3248   1.1675   1.1675   1.2950   1.2950   1.6267   1.6267
     1.6609   1.6609   1.9196   1.9196   1.9672   1.9672   2.0232   2.0232
     2.1209   2.1209   2.1735   2.1735   2.2115   2.2115   2.2304   2.2304
     2.2704   2.2704   2.4297   2.4297   2.6898   2.6898   2.9402   2.9402

          k =-0.5001-0.4687 0.2262 ( 48964 PWs)   bands (ev):

   -17.2556 -17.2556 -17.2553 -17.2553 -13.0886 -13.0886 -13.0843 -13.0843
   -13.0750 -13.0750 -13.0721 -13.0721 -13.0357 -13.0357 -13.0354 -13.0354
   -13.0331 -13.0331 -13.0331 -13.0331 -13.0268 -13.0268 -13.0266 -13.0266
    -8.5447  -8.5447  -8.4392  -8.4392  -8.2809  -8.2809  -8.2803  -8.2803
    -8.1484  -8.1484  -8.0530  -8.0530  -4.3889  -4.3889  -4.2017  -4.2017
    -4.1089  -4.1089  -4.1067  -4.1067  -4.0727  -4.0727  -4.0634  -4.0634
    -4.0622  -4.0622  -3.9794  -3.9794   0.2005   0.2005   0.2614   0.2614
     0.4835   0.4835   1.1851   1.1851   1.2341   1.2341   1.3482   1.3482
     1.6264   1.6264   1.7759   1.7759   2.0389   2.0389   2.0652   2.0652
     2.1331   2.1331   2.1341   2.1341   2.2228   2.2228   2.2307   2.2307
     2.3444   2.3444   2.4288   2.4288   2.6610   2.6610   2.7199   2.7199

     highest occupied level (ev):     3.4182

!    total energy              =   -8165.86056996 Ry
     estimated scf accuracy    <          7.7E-13 Ry

     The total energy is the sum of the following terms:
     one-electron contribution =    -324.91510535 Ry
     hartree contribution      =     251.22896963 Ry
     xc contribution           =    -792.77561662 Ry
     ewald contribution        =    -649.77980775 Ry
     one-center paw contrib.   =   -6649.61900987 Ry

     convergence has been achieved in  21 iterations

     Forces acting on atoms (cartesian axes, Ry/au):

     atom    1 type  1   force =     0.00024117   -0.00018791    0.00000000
     atom    2 type  1   force =    -0.00024117    0.00018791    0.00000000
     atom    3 type  1   force =     0.00024117    0.00018791    0.00000000
     atom    4 type  1   force =    -0.00024117   -0.00018791    0.00000000
     atom    5 type  2   force =     0.00000000    0.00000000    0.00000000
     atom    6 type  2   force =     0.00000000    0.00000000    0.00000000
     atom    7 type  2   force =     0.00000000    0.00000000   -0.00000000
     atom    8 type  2   force =    -0.00000000    0.00000000    0.00000000
     atom    9 type  3   force =    -0.00064225   -0.00018064    0.00000000
     atom   10 type  3   force =     0.00064225    0.00018064   -0.00000000
     atom   11 type  3   force =    -0.00064225    0.00018064    0.00000000
     atom   12 type  3   force =     0.00064225   -0.00018064    0.00000000
     atom   13 type  3   force =     0.00003763   -0.00005083   -0.00001057
     atom   14 type  3   force =    -0.00003763    0.00005083   -0.00001057
     atom   15 type  3   force =     0.00003763    0.00005083    0.00001057
     atom   16 type  3   force =    -0.00003763   -0.00005083    0.00001057
     atom   17 type  3   force =    -0.00003763    0.00005083    0.00001057
     atom   18 type  3   force =     0.00003763   -0.00005083    0.00001057
     atom   19 type  3   force =    -0.00003763   -0.00005083   -0.00001057
     atom   20 type  3   force =     0.00003763    0.00005083   -0.00001057

     Total force =     0.001479     Total SCF correction =     0.000000


     Computing stress (Cartesian axis) and pressure

          total   stress  (Ry/bohr**3)                   (kbar)     P=       -0.02
  -0.00000064   0.00000000   0.00000000           -0.09        0.00        0.00
   0.00000000   0.00000190   0.00000000            0.00        0.28        0.00
   0.00000000   0.00000000  -0.00000157            0.00        0.00       -0.23


     number of scf cycles    =   5
     number of bfgs steps    =   4

     enthalpy old            =   -8165.8605573540 Ry
     enthalpy new            =   -8165.8605699629 Ry

     CASE: enthalpy_new < enthalpy_old

     new trust radius        =       0.0048301212 bohr
     new conv_thr            =            1.3E-11 Ry

     new unit-cell volume =   6235.75243 a.u.^3 (   924.04317 Ang^3 )
     density =      5.18134 g/cm^3

CELL_PARAMETERS (angstrom)
   8.375795961   0.000000000   0.000000000
   0.000000000   8.939057957   0.000000000
   0.000000000   0.000000000  12.341683968

ATOMIC_POSITIONS (angstrom)
Cs            3.9100250728        3.7258363135        3.0854209920
Cs            4.4657708880        5.2132216438        9.2562629761
Cs           -0.2778729076        0.7436926652        9.2562629761
Cs            8.6536688685        8.1953652921        3.0854209920
Pb            4.1878979804        0.0000000000       -0.0000000000
Pb            4.1878979804       -0.0000000000        6.1708419841
Pb            0.0000000000        4.4695289786        0.0000000000
Pb           -0.0000000000        4.4695289786        6.1708419841
I             4.9057935782        0.0650586191        3.0854209920
I             3.4700023826        8.8739993381        9.2562629761
I             0.7178955978        4.4044703595        9.2562629761
I             7.6579003630        4.5345875978        3.0854209920
I             5.7596395427        2.7297752287       11.8437104707
I             2.6161564181        6.2092827285        5.6728684866
I             1.5717415623        1.7397537499        0.4979734975
I             6.8040543985        7.1993042074        6.6688154815
I             2.6161564181        6.2092827285        0.4979734975
I             5.7596395427        2.7297752287        6.6688154815
I             6.8040543985        7.1993042074       11.8437104707
I             1.5717415623        1.7397537499        5.6728684866



     Writing output data file ./tmp/unit_tight.save/
     NEW-OLD atomic charge density approx. for the potential
     extrapolated charge  175.97836, renormalised to  176.00000

     total cpu time spent up to now is     1779.2 secs

     Self-consistent Calculation

     iteration #  1     ecut=    60.00 Ry     beta= 0.30
     Davidson diagonalization with overlap
     ethr =  1.00E-06,  avg # of iterations =  2.0

     Threshold (ethr) on eigenvalues was too large:
     Diagonalizing with lowered threshold

     Davidson diagonalization with overlap
     ethr =  2.34E-09,  avg # of iterations =  6.9

     total cpu time spent up to now is     1815.4 secs

     total energy              =   -8165.86057845 Ry
     estimated scf accuracy    <       0.00001141 Ry

     iteration #  2     ecut=    60.00 Ry     beta= 0.30
     Davidson diagonalization with overlap
     ethr =  6.48E-09,  avg # of iterations =  5.0

     total cpu time spent up to now is     1835.5 secs

     total energy              =   -8165.86058641 Ry
     estimated scf accuracy    <       0.00000243 Ry

     iteration #  3     ecut=    60.00 Ry     beta= 0.30
     Davidson diagonalization with overlap
     ethr =  1.38E-09,  avg # of iterations =  1.3

     total cpu time spent up to now is     1847.8 secs

     total energy              =   -8165.86058620 Ry
     estimated scf accuracy    <       0.00000126 Ry

     iteration #  4     ecut=    60.00 Ry     beta= 0.30
     Davidson diagonalization with overlap
     ethr =  7.13E-10,  avg # of iterations =  3.9

     total cpu time spent up to now is     1863.0 secs

     total energy              =   -8165.86058654 Ry
     estimated scf accuracy    <       0.00000006 Ry

     iteration #  5     ecut=    60.00 Ry     beta= 0.30
     Davidson diagonalization with overlap
     ethr =  3.20E-11,  avg # of iterations =  5.7

     total cpu time spent up to now is     1882.7 secs

     total energy              =   -8165.86058660 Ry
     estimated scf accuracy    <       0.00000012 Ry

     iteration #  6     ecut=    60.00 Ry     beta= 0.30
     Davidson diagonalization with overlap
     ethr =  3.20E-11,  avg # of iterations =  2.0

     total cpu time spent up to now is     1895.6 secs

     total energy              =   -8165.86058659 Ry
     estimated scf accuracy    <       0.00000005 Ry

     iteration #  7     ecut=    60.00 Ry     beta= 0.30
     Davidson diagonalization with overlap
     ethr =  3.08E-11,  avg # of iterations =  4.0

     total cpu time spent up to now is     1913.0 secs

     total energy              =   -8165.86058662 Ry
     estimated scf accuracy    <       0.00000002 Ry

     iteration #  8     ecut=    60.00 Ry     beta= 0.30
     Davidson diagonalization with overlap
     ethr =  1.22E-11,  avg # of iterations =  2.1

     total cpu time spent up to now is     1926.4 secs

     total energy              =   -8165.86058661 Ry
     estimated scf accuracy    <       0.00000004 Ry

     iteration #  9     ecut=    60.00 Ry     beta= 0.30
     Davidson diagonalization with overlap
     ethr =  1.22E-11,  avg # of iterations =  2.2

     total cpu time spent up to now is     1940.6 secs

     total energy              =   -8165.86058662 Ry
     estimated scf accuracy    <          3.5E-09 Ry

     iteration # 10     ecut=    60.00 Ry     beta= 0.30
     Davidson diagonalization with overlap
     ethr =  2.01E-12,  avg # of iterations =  2.1

     total cpu time spent up to now is     1953.4 secs

     total energy              =   -8165.86058662 Ry
     estimated scf accuracy    <          3.0E-09 Ry

     iteration # 11     ecut=    60.00 Ry     beta= 0.30
     Davidson diagonalization with overlap
     ethr =  1.72E-12,  avg # of iterations =  2.0

     total cpu time spent up to now is     1966.2 secs

     total energy              =   -8165.86058662 Ry
     estimated scf accuracy    <          3.7E-09 Ry

     iteration # 12     ecut=    60.00 Ry     beta= 0.30
     Davidson diagonalization with overlap
     ethr =  1.72E-12,  avg # of iterations =  1.9

     total cpu time spent up to now is     1979.0 secs

     total energy              =   -8165.86058662 Ry
     estimated scf accuracy    <          1.2E-09 Ry

     iteration # 13     ecut=    60.00 Ry     beta= 0.30
     Davidson diagonalization with overlap
     ethr =  6.61E-13,  avg # of iterations =  2.1

     total cpu time spent up to now is     1992.4 secs

     total energy              =   -8165.86058662 Ry
     estimated scf accuracy    <          3.5E-10 Ry

     iteration # 14     ecut=    60.00 Ry     beta= 0.30
     Davidson diagonalization with overlap
     ethr =  2.00E-13,  avg # of iterations =  4.3

     total cpu time spent up to now is     2010.2 secs

     total energy              =   -8165.86058662 Ry
     estimated scf accuracy    <          3.7E-10 Ry

     iteration # 15     ecut=    60.00 Ry     beta= 0.30
     Davidson diagonalization with overlap
     ethr =  2.00E-13,  avg # of iterations =  1.0

     total cpu time spent up to now is     2022.2 secs

     total energy              =   -8165.86058662 Ry
     estimated scf accuracy    <          2.5E-10 Ry

     iteration # 16     ecut=    60.00 Ry     beta= 0.30
     Davidson diagonalization with overlap
     ethr =  1.44E-13,  avg # of iterations =  2.0

     total cpu time spent up to now is     2036.6 secs

     total energy              =   -8165.86058662 Ry
     estimated scf accuracy    <          4.5E-11 Ry

     iteration # 17     ecut=    60.00 Ry     beta= 0.30
     Davidson diagonalization with overlap
     ethr =  1.00E-13,  avg # of iterations =  1.0

     total cpu time spent up to now is     2048.7 secs

     total energy              =   -8165.86058662 Ry
     estimated scf accuracy    <          1.6E-11 Ry

     iteration # 18     ecut=    60.00 Ry     beta= 0.30
     Davidson diagonalization with overlap
     ethr =  1.00E-13,  avg # of iterations =  1.0

     total cpu time spent up to now is     2060.5 secs

     End of self-consistent calculation

          k = 0.0000 0.0000 0.0000 ( 49019 PWs)   bands (ev):

   -17.2559 -17.2552 -17.2536 -17.2531 -13.0907 -13.0877 -13.0872 -13.0834
   -13.0765 -13.0693 -13.0666 -13.0665 -13.0344 -13.0342 -13.0338 -13.0336
   -13.0319 -13.0318 -13.0313 -13.0312 -13.0256 -13.0252 -13.0249 -13.0246
    -8.7793  -8.5858  -8.3294  -8.2844  -8.2825  -8.2635  -8.2591  -8.2389
    -8.2237  -8.0516  -8.0465  -8.0372  -4.9758  -4.4617  -4.1276  -4.1233
    -4.1198  -4.1174  -4.1143  -4.1109  -4.1049  -4.0999  -4.0910  -4.0689
    -4.0567  -4.0489  -3.9133  -3.4650  -0.0155   0.0319   0.0547   0.1863
     0.1905   0.2690   1.1068   1.3997   1.4110   1.4299   1.4437   1.4959
     1.7270   1.9137   1.9277   1.9309   2.0153   2.0253   2.0268   2.0613
     2.0681   2.0752   2.1023   2.1028   2.1587   2.3576   2.3791   2.4181
     2.4402   2.4457   2.4674   2.4954   2.6889   2.6980   2.9651   3.4205

          k = 0.0000 0.0000 0.2263 ( 48974 PWs)   bands (ev):

   -17.2557 -17.2554 -17.2535 -17.2532 -13.0874 -13.0872 -13.0871 -13.0800
   -13.0800 -13.0729 -13.0666 -13.0666 -13.0342 -13.0340 -13.0339 -13.0337
   -13.0319 -13.0318 -13.0313 -13.0312 -13.0255 -13.0253 -13.0248 -13.0247
    -8.7447  -8.6545  -8.3140  -8.2828  -8.2766  -8.2658  -8.2385  -8.2283
    -8.1997  -8.0909  -8.0475  -8.0403  -4.8559  -4.5982  -4.1277  -4.1267
    -4.1254  -4.1233  -4.1109  -4.1021  -4.0844  -4.0839  -4.0712  -4.0665
    -4.0658  -4.0585  -3.8548  -3.6216   0.0570   0.0879   0.0985   0.1595
     0.4184   0.6240   1.1063   1.1775   1.2899   1.4615   1.4708   1.5152
     1.5468   1.6667   1.8449   1.9298   1.9475   1.9771   2.0558   2.0657
     2.0838   2.1220   2.1608   2.1652   2.2583   2.2680   2.3211   2.3701
     2.4031   2.4126   2.4473   2.4650   2.6103   2.6735   2.9932   3.1426

          k = 0.0000 0.2343 0.0000 ( 49004 PWs)   bands (ev):

   -17.2556 -17.2549 -17.2539 -17.2534 -13.0897 -13.0861 -13.0843 -13.0830
   -13.0756 -13.0702 -13.0696 -13.0694 -13.0343 -13.0342 -13.0337 -13.0336
   -13.0318 -13.0317 -13.0314 -13.0313 -13.0255 -13.0251 -13.0250 -13.0247
    -8.7409  -8.5443  -8.4760  -8.3149  -8.2790  -8.2673  -8.2142  -8.1969
    -8.1689  -8.0805  -8.0646  -8.0544  -4.8467  -4.3617  -4.2296  -4.1318
    -4.1242  -4.1174  -4.1133  -4.1030  -4.0839  -4.0829  -4.0773  -4.0754
    -4.0677  -4.0305  -3.9937  -3.6321   0.0392   0.2000   0.2156   0.3112
     0.3794   0.4051   1.1739   1.2815   1.2819   1.3567   1.4357   1.4875
     1.5031   1.6038   1.7500   1.8650   1.9782   1.9792   2.0221   2.0459
     2.1159   2.1192   2.1669   2.1698   2.1874   2.2847   2.3337   2.3377
     2.3923   2.4092   2.4558   2.5136   2.6988   2.7249   2.7491   3.1365

          k = 0.0000 0.2343 0.2263 ( 48988 PWs)   bands (ev):

   -17.2554 -17.2551 -17.2538 -17.2536 -13.0862 -13.0848 -13.0843 -13.0807
   -13.0791 -13.0738 -13.0696 -13.0695 -13.0342 -13.0340 -13.0339 -13.0338
   -13.0318 -13.0317 -13.0314 -13.0313 -13.0254 -13.0252 -13.0249 -13.0248
    -8.7062  -8.6154  -8.4496  -8.3809  -8.2175  -8.2132  -8.2057  -8.1935
    -8.1802  -8.0954  -8.0765  -8.0684  -4.7327  -4.4877  -4.1566  -4.1269
    -4.1256  -4.1148  -4.1111  -4.1062  -4.0928  -4.0832  -4.0815  -4.0673
    -4.0632  -4.0503  -3.9689  -3.7765   0.2510   0.2715   0.3264   0.3495
     0.4912   0.5708   1.1320   1.2177   1.2606   1.3129   1.3280   1.4117
     1.5206   1.6069   1.6262   1.8250   1.8268   1.9369   1.9407   2.0259
     2.0391   2.1092   2.1185   2.1413   2.2691   2.3165   2.3578   2.3753
     2.4026   2.4070   2.4353   2.4833   2.6567   2.6954   2.7293   2.8836

          k = 0.0000-0.4686 0.0000 ( 48914 PWs)   bands (ev):

   -17.2547 -17.2547 -17.2542 -17.2542 -13.0874 -13.0874 -13.0774 -13.0774
   -13.0768 -13.0768 -13.0724 -13.0724 -13.0343 -13.0343 -13.0337 -13.0337
   -13.0316 -13.0316 -13.0315 -13.0315 -13.0252 -13.0252 -13.0249 -13.0249
    -8.6323  -8.6323  -8.4366  -8.4366  -8.2735  -8.2735  -8.1490  -8.1490
    -8.1311  -8.1311  -8.0884  -8.0884  -4.5335  -4.5335  -4.1637  -4.1637
    -4.1189  -4.1189  -4.0959  -4.0959  -4.0936  -4.0936  -4.0782  -4.0782
    -4.0583  -4.0583  -3.9260  -3.9260   0.1155   0.1155   0.6470   0.6470
     0.8345   0.8345   0.9134   0.9134   0.9972   0.9972   1.3227   1.3227
     1.6194   1.6194   1.7403   1.7403   1.8500   1.8500   2.0243   2.0243
     2.0951   2.0951   2.1284   2.1284   2.2258   2.2258   2.3440   2.3440
     2.3974   2.3974   2.4554   2.4554   2.6430   2.6430   2.8665   2.8665

          k = 0.0000-0.4686 0.2263 ( 48958 PWs)   bands (ev):

   -17.2546 -17.2546 -17.2543 -17.2543 -13.0839 -13.0839 -13.0781 -13.0781
   -13.0767 -13.0767 -13.0752 -13.0752 -13.0341 -13.0341 -13.0338 -13.0338
   -13.0316 -13.0316 -13.0315 -13.0315 -13.0252 -13.0252 -13.0250 -13.0250
    -8.5992  -8.5992  -8.5113  -8.5113  -8.2020  -8.2020  -8.1459  -8.1459
    -8.1351  -8.1351  -8.1172  -8.1172  -4.4291  -4.4291  -4.2228  -4.2228
    -4.1220  -4.1220  -4.1068  -4.1068  -4.0921  -4.0921  -4.0750  -4.0750
    -4.0556  -4.0556  -4.0006  -4.0006   0.4545   0.4545   0.6892   0.6892
     0.7692   0.7692   0.9290   0.9290   0.9696   0.9696   1.2264   1.2264
     1.6729   1.6729   1.7228   1.7228   1.7980   1.7980   1.8960   1.8960
     1.9449   1.9449   1.9827   1.9827   2.3260   2.3260   2.3912   2.3912
     2.4020   2.4020   2.4768   2.4768   2.6529   2.6529   2.7107   2.7107

          k = 0.2501 0.0000 0.0000 ( 48921 PWs)   bands (ev):

   -17.2556 -17.2550 -17.2537 -17.2533 -13.0897 -13.0861 -13.0843 -13.0830
   -13.0756 -13.0702 -13.0696 -13.0694 -13.0343 -13.0342 -13.0337 -13.0336
   -13.0318 -13.0317 -13.0314 -13.0313 -13.0255 -13.0251 -13.0250 -13.0247
    -8.7375  -8.5399  -8.4594  -8.2856  -8.2795  -8.2697  -8.2503  -8.2274
    -8.1545  -8.0851  -8.0702  -8.0540  -4.8446  -4.3536  -4.2060  -4.1236
    -4.1209  -4.1150  -4.1109  -4.1042  -4.1041  -4.0848  -4.0800  -4.0692
    -4.0611  -4.0374  -3.9895  -3.6353   0.0379   0.1874   0.2058   0.3236
     0.3378   0.4736   1.1422   1.1860   1.3151   1.3848   1.5021   1.5055
     1.5075   1.6123   1.8305   1.8520   1.9854   1.9928   2.0226   2.0374
     2.1209   2.1294   2.1777   2.2114   2.2196   2.2292   2.2437   2.3668
     2.3802   2.4097   2.4549   2.5089   2.6244   2.6846   2.7116   3.0560

          k = 0.2501 0.0000 0.2263 ( 48983 PWs)   bands (ev):

   -17.2555 -17.2552 -17.2536 -17.2535 -13.0862 -13.0848 -13.0843 -13.0807
   -13.0791 -13.0738 -13.0696 -13.0695 -13.0342 -13.0340 -13.0339 -13.0338
   -13.0318 -13.0317 -13.0314 -13.0313 -13.0254 -13.0252 -13.0249 -13.0248
    -8.7028  -8.6117  -8.4327  -8.3633  -8.2462  -8.2352  -8.2063  -8.1995
    -8.1665  -8.0955  -8.0807  -8.0732  -4.7296  -4.4817  -4.1390  -4.1311
    -4.1271  -4.1177  -4.0978  -4.0960  -4.0902  -4.0844  -4.0770  -4.0645
    -4.0612  -4.0584  -3.9752  -3.7840   0.2184   0.2638   0.3206   0.4189
     0.4755   0.5649   1.1081   1.1548   1.2201   1.3444   1.3902   1.3950
     1.5826   1.6228   1.6436   1.7986   1.9265   1.9436   2.0382   2.0401
     2.0666   2.0883   2.1558   2.1941   2.2507   2.2534   2.3132   2.3642
     2.3865   2.4020   2.4239   2.4774   2.5800   2.6041   2.6931   2.7763

          k = 0.2501 0.2343 0.0000 ( 48919 PWs)   bands (ev):

   -17.2553 -17.2548 -17.2540 -17.2536 -13.0901 -13.0865 -13.0832 -13.0807
   -13.0754 -13.0726 -13.0712 -13.0683 -13.0343 -13.0342 -13.0337 -13.0336
   -13.0318 -13.0316 -13.0315 -13.0313 -13.0254 -13.0251 -13.0251 -13.0248
    -8.7029  -8.5020  -8.4997  -8.2816  -8.2803  -8.2790  -8.2618  -8.2537
    -8.1424  -8.1028  -8.0941  -8.0332  -4.7430  -4.2953  -4.2823  -4.1207
    -4.1134  -4.1120  -4.1117  -4.1008  -4.0922  -4.0788  -4.0752  -4.0733
    -4.0699  -4.0212  -4.0088  -3.7248   0.0556   0.1028   0.1702   0.2500
     0.7080   0.8216   0.8593   1.0340   1.2616   1.2713   1.2959   1.5479
     1.5645   1.7086   1.7980   1.9189   1.9598   1.9776   2.0504   2.0659
     2.0735   2.1153   2.1354   2.1441   2.2209   2.2792   2.3239   2.3262
     2.3382   2.3631   2.4457   2.4762   2.6060   2.7137   2.7479   3.0573

          k = 0.2501 0.2343 0.2263 ( 48969 PWs)   bands (ev):

   -17.2552 -17.2549 -17.2539 -17.2537 -13.0872 -13.0838 -13.0834 -13.0797
   -13.0778 -13.0753 -13.0710 -13.0698 -13.0342 -13.0341 -13.0339 -13.0338
   -13.0317 -13.0317 -13.0314 -13.0314 -13.0253 -13.0251 -13.0250 -13.0248
    -8.6678  -8.5752  -8.4702  -8.3849  -8.2689  -8.2642  -8.2060  -8.1734
    -8.1481  -8.1139  -8.0980  -8.0626  -4.6332  -4.3982  -4.2070  -4.1217
    -4.1202  -4.1165  -4.1053  -4.0943  -4.0895  -4.0832  -4.0768  -4.0714
    -4.0633  -4.0426  -4.0115  -3.8621   0.1336   0.1961   0.4135   0.5224
     0.7585   0.7766   0.8982   0.9603   1.1359   1.2481   1.3108   1.3645
     1.5742   1.6823   1.7075   1.8098   1.8674   1.9131   1.9341   1.9687
     2.0750   2.1036   2.1831   2.2139   2.2601   2.3055   2.3215   2.3485
     2.3712   2.3842   2.4359   2.4548   2.5875   2.6161   2.6972   2.8013

          k = 0.2501-0.4686 0.0000 ( 48942 PWs)   bands (ev):

   -17.2547 -17.2547 -17.2542 -17.2542 -13.0888 -13.0888 -13.0798 -13.0798
   -13.0754 -13.0754 -13.0700 -13.0700 -13.0342 -13.0342 -13.0337 -13.0337
   -13.0316 -13.0316 -13.0315 -13.0315 -13.0252 -13.0252 -13.0249 -13.0249
    -8.6102  -8.6102  -8.3961  -8.3961  -8.2781  -8.2781  -8.2207  -8.2207
    -8.1799  -8.1799  -8.0419  -8.0419  -4.5098  -4.5098  -4.1467  -4.1467
    -4.1168  -4.1168  -4.0970  -4.0970  -4.0895  -4.0895  -4.0763  -4.0763
    -4.0632  -4.0632  -3.9044  -3.9044   0.1078   0.1078   0.3415   0.3415
     0.4886   0.4886   1.1647   1.1647   1.2421   1.2421   1.3616   1.3616
     1.6407   1.6407   1.8444   1.8444   1.9538   1.9538   2.0390   2.0390
     2.1193   2.1193   2.2112   2.2112   2.2167   2.2167   2.2719   2.2719
     2.3398   2.3398   2.3910   2.3910   2.6483   2.6483   2.8717   2.8717

          k = 0.2501-0.4686 0.2263 ( 48988 PWs)   bands (ev):

   -17.2546 -17.2546 -17.2543 -17.2543 -13.0858 -13.0858 -13.0811 -13.0811
   -13.0749 -13.0749 -13.0723 -13.0723 -13.0341 -13.0341 -13.0338 -13.0338
   -13.0316 -13.0316 -13.0315 -13.0315 -13.0252 -13.0252 -13.0250 -13.0250
    -8.5751  -8.5751  -8.4813  -8.4813  -8.2347  -8.2347  -8.2220  -8.2220
    -8.1427  -8.1427  -8.0706  -8.0706  -4.4088  -4.4088  -4.2110  -4.2110
    -4.1155  -4.1155  -4.1056  -4.1056  -4.0824  -4.0824  -4.0736  -4.0736
    -4.0532  -4.0532  -3.9901  -3.9901   0.3540   0.3540   0.4250   0.4250
     0.5101   0.5101   1.1615   1.1615   1.2097   1.2097   1.2351   1.2351
     1.5699   1.5699   1.7630   1.7630   1.8957   1.8957   1.9936   1.9936
     2.0854   2.0854   2.1193   2.1193   2.3019   2.3019   2.3372   2.3372
     2.3704   2.3704   2.4177   2.4177   2.6262   2.6262   2.6642   2.6642

          k =-0.5001 0.0000 0.0000 ( 48876 PWs)   bands (ev):

   -17.2551 -17.2551 -17.2538 -17.2538 -13.0874 -13.0874 -13.0774 -13.0774
   -13.0768 -13.0768 -13.0724 -13.0724 -13.0342 -13.0342 -13.0337 -13.0337
   -13.0316 -13.0316 -13.0315 -13.0315 -13.0252 -13.0252 -13.0249 -13.0249
    -8.6210  -8.6210  -8.4205  -8.4205  -8.2763  -8.2763  -8.1721  -8.1721
    -8.1496  -8.1496  -8.0824  -8.0824  -4.5239  -4.5239  -4.1604  -4.1604
    -4.1164  -4.1164  -4.0957  -4.0957  -4.0717  -4.0717  -4.0648  -4.0648
    -4.0491  -4.0491  -3.9553  -3.9553   0.1178   0.1178   0.5985   0.5985
     0.8110   0.8110   0.9259   0.9259   1.1256   1.1256   1.2695   1.2695
     1.6001   1.6001   1.8186   1.8186   1.9190   1.9190   2.0308   2.0308
     2.0606   2.0606   2.2139   2.2139   2.2257   2.2257   2.2844   2.2844
     2.3734   2.3734   2.4510   2.4510   2.5054   2.5054   2.7630   2.7630

          k =-0.5001 0.0000 0.2263 ( 48902 PWs)   bands (ev):

   -17.2550 -17.2550 -17.2538 -17.2538 -13.0839 -13.0839 -13.0782 -13.0782
   -13.0767 -13.0767 -13.0752 -13.0752 -13.0341 -13.0341 -13.0338 -13.0338
   -13.0316 -13.0316 -13.0315 -13.0315 -13.0252 -13.0252 -13.0250 -13.0250
    -8.5878  -8.5878  -8.4989  -8.4989  -8.2020  -8.2020  -8.1730  -8.1730
    -8.1485  -8.1485  -8.1113  -8.1113  -4.4168  -4.4168  -4.2057  -4.2057
    -4.1191  -4.1191  -4.1072  -4.1072  -4.0790  -4.0790  -4.0663  -4.0663
    -4.0464  -4.0464  -4.0326  -4.0326   0.4556   0.4556   0.6425   0.6425
     0.7517   0.7517   0.9440   0.9440   1.0377   1.0377   1.1730   1.1730
     1.6832   1.6832   1.8284   1.8284   1.8501   1.8501   1.9483   1.9483
     1.9622   1.9622   2.0876   2.0876   2.3093   2.3093   2.3336   2.3336
     2.3804   2.3804   2.4327   2.4327   2.5070   2.5070   2.5452   2.5452

          k =-0.5001 0.2343 0.0000 ( 48934 PWs)   bands (ev):

   -17.2549 -17.2549 -17.2539 -17.2539 -13.0888 -13.0888 -13.0798 -13.0798
   -13.0754 -13.0754 -13.0700 -13.0700 -13.0342 -13.0342 -13.0337 -13.0337
   -13.0316 -13.0316 -13.0315 -13.0315 -13.0252 -13.0252 -13.0249 -13.0249
    -8.6037  -8.6037  -8.3846  -8.3846  -8.2801  -8.2801  -8.2287  -8.2287
    -8.1927  -8.1927  -8.0426  -8.0426  -4.5047  -4.5047  -4.1485  -4.1485
    -4.1041  -4.1041  -4.1039  -4.1039  -4.0830  -4.0830  -4.0720  -4.0720
    -4.0559  -4.0559  -3.9162  -3.9162   0.1076   0.1076   0.3307   0.3307
     0.4986   0.4986   1.1219   1.1219   1.2517   1.2517   1.4316   1.4316
     1.6532   1.6532   1.8642   1.8642   1.9845   1.9845   2.0593   2.0593
     2.0842   2.0842   2.1910   2.1910   2.2057   2.2057   2.2621   2.2621
     2.3105   2.3105   2.3967   2.3967   2.6072   2.6072   2.8328   2.8328

          k =-0.5001 0.2343 0.2263 ( 48884 PWs)   bands (ev):

   -17.2549 -17.2549 -17.2540 -17.2540 -13.0858 -13.0858 -13.0811 -13.0811
   -13.0749 -13.0749 -13.0723 -13.0723 -13.0341 -13.0341 -13.0338 -13.0338
   -13.0316 -13.0316 -13.0315 -13.0315 -13.0252 -13.0252 -13.0250 -13.0250
    -8.5684  -8.5684  -8.4735  -8.4735  -8.2427  -8.2427  -8.2257  -8.2257
    -8.1494  -8.1494  -8.0721  -8.0721  -4.4025  -4.4025  -4.2040  -4.2040
    -4.1076  -4.1076  -4.1010  -4.1010  -4.0890  -4.0890  -4.0707  -4.0707
    -4.0466  -4.0466  -4.0033  -4.0033   0.3546   0.3546   0.4160   0.4160
     0.5102   0.5102   1.0996   1.0996   1.2376   1.2376   1.2758   1.2758
     1.6001   1.6001   1.7912   1.7912   1.9031   1.9031   2.0565   2.0565
     2.1107   2.1107   2.1581   2.1581   2.2604   2.2604   2.2857   2.2857
     2.3252   2.3252   2.4115   2.4115   2.5736   2.5736   2.6017   2.6017

          k =-0.5001-0.4686 0.0000 ( 48992 PWs)   bands (ev):

   -17.2547 -17.2547 -17.2541 -17.2541 -13.0899 -13.0899 -13.0813 -13.0813
   -13.0743 -13.0743 -13.0685 -13.0685 -13.0342 -13.0342 -13.0337 -13.0337
   -13.0316 -13.0316 -13.0315 -13.0315 -13.0252 -13.0252 -13.0249 -13.0249
    -8.5831  -8.5831  -8.3047  -8.3047  -8.2959  -8.2959  -8.2796  -8.2796
    -8.2601  -8.2601  -8.0193  -8.0193  -4.4858  -4.4858  -4.1307  -4.1307
    -4.1112  -4.1112  -4.0992  -4.0992  -4.0831  -4.0831  -4.0748  -4.0748
    -4.0705  -4.0705  -3.8836  -3.8836   0.0949   0.0949   0.1694   0.1694
     0.3267   0.3267   1.1675   1.1675   1.2957   1.2957   1.6281   1.6281
     1.6621   1.6621   1.9210   1.9210   1.9669   1.9669   2.0247   2.0247
     2.1226   2.1226   2.1745   2.1745   2.2125   2.2125   2.2316   2.2316
     2.2708   2.2708   2.4308   2.4308   2.6909   2.6909   2.9432   2.9432

          k =-0.5001-0.4686 0.2263 ( 48964 PWs)   bands (ev):

   -17.2546 -17.2546 -17.2543 -17.2543 -13.0871 -13.0871 -13.0827 -13.0827
   -13.0735 -13.0735 -13.0707 -13.0707 -13.0341 -13.0341 -13.0338 -13.0338
   -13.0316 -13.0316 -13.0315 -13.0315 -13.0252 -13.0252 -13.0250 -13.0250
    -8.5448  -8.5448  -8.4390  -8.4390  -8.2793  -8.2793  -8.2787  -8.2787
    -8.1479  -8.1479  -8.0522  -8.0522  -4.3883  -4.3883  -4.2003  -4.2003
    -4.1079  -4.1079  -4.1057  -4.1057  -4.0718  -4.0718  -4.0623  -4.0623
    -4.0612  -4.0612  -3.9781  -3.9781   0.2016   0.2016   0.2625   0.2625
     0.4829   0.4829   1.1860   1.1860   1.2343   1.2343   1.3492   1.3492
     1.6275   1.6275   1.7766   1.7766   2.0391   2.0391   2.0663   2.0663
     2.1341   2.1341   2.1351   2.1351   2.2242   2.2242   2.2317   2.2317
     2.3452   2.3452   2.4298   2.4298   2.6621   2.6621   2.7214   2.7214

     highest occupied level (ev):     3.4205

!    total energy              =   -8165.86058662 Ry
     estimated scf accuracy    <          8.4E-12 Ry

     The total energy is the sum of the following terms:
     one-electron contribution =    -324.92809633 Ry
     hartree contribution      =     251.24321413 Ry
     xc contribution           =    -792.77689937 Ry
     ewald contribution        =    -649.77970865 Ry
     one-center paw contrib.   =   -6649.61909640 Ry

     convergence has been achieved in  18 iterations

     Forces acting on atoms (cartesian axes, Ry/au):

     atom    1 type  1   force =     0.00024031   -0.00017102    0.00000000
     atom    2 type  1   force =    -0.00024031    0.00017102    0.00000000
     atom    3 type  1   force =     0.00024031    0.00017102    0.00000000
     atom    4 type  1   force =    -0.00024031   -0.00017102   -0.00000000
     atom    5 type  2   force =    -0.00000000    0.00000000    0.00000000
     atom    6 type  2   force =     0.00000000    0.00000000   -0.00000000
     atom    7 type  2   force =     0.00000000   -0.00000000   -0.00000000
     atom    8 type  2   force =     0.00000000   -0.00000000    0.00000000
     atom    9 type  3   force =    -0.00054799   -0.00017312    0.00000000
     atom   10 type  3   force =     0.00054799    0.00017312    0.00000000
     atom   11 type  3   force =    -0.00054799    0.00017312    0.00000000
     atom   12 type  3   force =     0.00054799   -0.00017312    0.00000000
     atom   13 type  3   force =     0.00000548   -0.00008354    0.00000139
     atom   14 type  3   force =    -0.00000548    0.00008354    0.00000139
     atom   15 type  3   force =     0.00000548    0.00008354   -0.00000139
     atom   16 type  3   force =    -0.00000548   -0.00008354   -0.00000139
     atom   17 type  3   force =    -0.00000548    0.00008354   -0.00000139
     atom   18 type  3   force =     0.00000548   -0.00008354   -0.00000139
     atom   19 type  3   force =    -0.00000548   -0.00008354    0.00000139
     atom   20 type  3   force =     0.00000548    0.00008354    0.00000139

     Total force =     0.001313     Total SCF correction =     0.000002


     Computing stress (Cartesian axis) and pressure

          total   stress  (Ry/bohr**3)                   (kbar)     P=        0.02
  -0.00000061   0.00000000   0.00000000           -0.09        0.00        0.00
   0.00000000   0.00000158   0.00000000            0.00        0.23        0.00
   0.00000000   0.00000000  -0.00000052            0.00        0.00       -0.08


     number of scf cycles    =   6
     number of bfgs steps    =   5

     enthalpy old            =   -8165.8605699629 Ry
     enthalpy new            =   -8165.8605866177 Ry

     CASE: enthalpy_new < enthalpy_old

     new trust radius        =       0.0072469522 bohr
     new conv_thr            =            1.4E-11 Ry

     new unit-cell volume =   6234.71768 a.u.^3 (   923.88984 Ang^3 )
     density =      5.18220 g/cm^3

CELL_PARAMETERS (angstrom)
   8.374572105   0.000000000   0.000000000
   0.000000000   8.942984344   0.000000000
   0.000000000   0.000000000  12.336020853

ATOMIC_POSITIONS (angstrom)
Cs            3.9105469181        3.7265845730        3.0840052132
Cs            4.4640251869        5.2163997705        9.2520156397
Cs           -0.2767391344        0.7449075987        9.2520156397
Cs            8.6513112394        8.1980767448        3.0840052132
Pb            4.1872860525        0.0000000000        0.0000000000
Pb            4.1872860525       -0.0000000000        6.1680104265
Pb            0.0000000000        4.4714921718        0.0000000000
Pb           -0.0000000000        4.4714921718        6.1680104265
I             4.9019344727        0.0642467402        3.0840052132
I             3.4726376323        8.8787376034        9.2520156397
I             0.7146484202        4.4072454316        9.2520156397
I             7.6599236848        4.5357389120        3.0840052132
I             5.7590533793        2.7308337600       11.8381989835
I             2.6155187257        6.2121505835        5.6701885570
I             1.5717673268        1.7406584118        0.4978218695
I             6.8028047782        7.2023259318        6.6658322960
I             2.6155187257        6.2121505835        0.4978218695
I             5.7590533793        2.7308337600        6.6658322960
I             6.8028047782        7.2023259318       11.8381989835
I             1.5717673268        1.7406584118        5.6701885570



     Writing output data file ./tmp/unit_tight.save/
     NEW-OLD atomic charge density approx. for the potential
     extrapolated charge  175.97082, renormalised to  176.00000

     total cpu time spent up to now is     2150.1 secs

     Self-consistent Calculation

     iteration #  1     ecut=    60.00 Ry     beta= 0.30
     Davidson diagonalization with overlap
     ethr =  1.00E-06,  avg # of iterations =  2.1

     Threshold (ethr) on eigenvalues was too large:
     Diagonalizing with lowered threshold

     Davidson diagonalization with overlap
     ethr =  4.53E-09,  avg # of iterations =  6.6

     total cpu time spent up to now is     2187.2 secs

     total energy              =   -8165.86058979 Ry
     estimated scf accuracy    <       0.00002177 Ry

     iteration #  2     ecut=    60.00 Ry     beta= 0.30
     Davidson diagonalization with overlap
     ethr =  1.24E-08,  avg # of iterations =  5.0

     total cpu time spent up to now is     2207.4 secs

     total energy              =   -8165.86060486 Ry
     estimated scf accuracy    <       0.00000460 Ry

     iteration #  3     ecut=    60.00 Ry     beta= 0.30
     Davidson diagonalization with overlap
     ethr =  2.61E-09,  avg # of iterations =  1.3

     total cpu time spent up to now is     2219.7 secs

     total energy              =   -8165.86060457 Ry
     estimated scf accuracy    <       0.00000237 Ry

     iteration #  4     ecut=    60.00 Ry     beta= 0.30
     Davidson diagonalization with overlap
     ethr =  1.34E-09,  avg # of iterations =  4.0

     total cpu time spent up to now is     2235.6 secs

     total energy              =   -8165.86060531 Ry
     estimated scf accuracy    <       0.00000017 Ry

     iteration #  5     ecut=    60.00 Ry     beta= 0.30
     Davidson diagonalization with overlap
     ethr =  9.72E-11,  avg # of iterations =  4.9

     total cpu time spent up to now is     2251.9 secs

     total energy              =   -8165.86060539 Ry
     estimated scf accuracy    <       0.00000029 Ry

     iteration #  6     ecut=    60.00 Ry     beta= 0.30
     Davidson diagonalization with overlap
     ethr =  9.72E-11,  avg # of iterations =  2.0

     total cpu time spent up to now is     2264.9 secs

     total energy              =   -8165.86060540 Ry
     estimated scf accuracy    <       0.00000009 Ry

     iteration #  7     ecut=    60.00 Ry     beta= 0.30
     Davidson diagonalization with overlap
     ethr =  5.17E-11,  avg # of iterations =  4.1

     total cpu time spent up to now is     2281.9 secs

     total energy              =   -8165.86060546 Ry
     estimated scf accuracy    <       0.00000001 Ry

     iteration #  8     ecut=    60.00 Ry     beta= 0.30
     Davidson diagonalization with overlap
     ethr =  6.63E-12,  avg # of iterations =  6.0

     total cpu time spent up to now is     2300.8 secs

     total energy              =   -8165.86060546 Ry
     estimated scf accuracy    <       0.00000005 Ry

     iteration #  9     ecut=    60.00 Ry     beta= 0.30
     Davidson diagonalization with overlap
     ethr =  6.63E-12,  avg # of iterations =  4.0

     total cpu time spent up to now is     2318.1 secs

     total energy              =   -8165.86060547 Ry
     estimated scf accuracy    <          2.1E-10 Ry

     iteration # 10     ecut=    60.00 Ry     beta= 0.30
     Davidson diagonalization with overlap
     ethr =  1.17E-13,  avg # of iterations =  5.5

     total cpu time spent up to now is     2338.7 secs

     total energy              =   -8165.86060547 Ry
     estimated scf accuracy    <          1.2E-09 Ry

     iteration # 11     ecut=    60.00 Ry     beta= 0.30
     Davidson diagonalization with overlap
     ethr =  1.17E-13,  avg # of iterations =  5.2

     total cpu time spent up to now is     2358.4 secs

     total energy              =   -8165.86060547 Ry
     estimated scf accuracy    <          2.8E-11 Ry

     iteration # 12     ecut=    60.00 Ry     beta= 0.30
     Davidson diagonalization with overlap
     ethr =  1.00E-13,  avg # of iterations =  1.9

     total cpu time spent up to now is     2370.9 secs

     End of self-consistent calculation

          k = 0.0000 0.0000 0.0000 ( 49019 PWs)   bands (ev):

   -17.2545 -17.2538 -17.2522 -17.2518 -13.0889 -13.0855 -13.0849 -13.0815
   -13.0746 -13.0673 -13.0644 -13.0643 -13.0322 -13.0320 -13.0316 -13.0314
   -13.0298 -13.0296 -13.0292 -13.0290 -13.0233 -13.0230 -13.0227 -13.0224
    -8.7790  -8.5832  -8.3313  -8.2836  -8.2826  -8.2651  -8.2571  -8.2368
    -8.2211  -8.0495  -8.0455  -8.0350  -4.9754  -4.4576  -4.1262  -4.1218
    -4.1184  -4.1160  -4.1128  -4.1102  -4.1036  -4.0983  -4.0897  -4.0675
    -4.0554  -4.0474  -3.9135  -3.4624  -0.0176   0.0330   0.0570   0.1895
     0.1913   0.2642   1.1089   1.4020   1.4136   1.4299   1.4436   1.4972
     1.7266   1.9167   1.9270   1.9331   2.0169   2.0244   2.0294   2.0629
     2.0693   2.0753   2.1028   2.1045   2.1593   2.3596   2.3812   2.4194
     2.4404   2.4479   2.4700   2.4976   2.6930   2.6998   2.9655   3.4239

          k = 0.0000 0.0000 0.2264 ( 48974 PWs)   bands (ev):

   -17.2544 -17.2540 -17.2521 -17.2519 -13.0853 -13.0852 -13.0850 -13.0782
   -13.0781 -13.0710 -13.0644 -13.0644 -13.0321 -13.0319 -13.0318 -13.0316
   -13.0297 -13.0297 -13.0291 -13.0290 -13.0232 -13.0231 -13.0226 -13.0225
    -8.7441  -8.6530  -8.3159  -8.2840  -8.2752  -8.2637  -8.2359  -8.2256
    -8.2000  -8.0903  -8.0453  -8.0381  -4.8547  -4.5952  -4.1262  -4.1253
    -4.1239  -4.1218  -4.1094  -4.1006  -4.0832  -4.0824  -4.0697  -4.0652
    -4.0644  -4.0571  -3.8552  -3.6203   0.0583   0.0904   0.1002   0.1626
     0.4172   0.6208   1.1084   1.1797   1.2921   1.4621   1.4711   1.5152
     1.5478   1.6671   1.8463   1.9320   1.9473   1.9780   2.0568   2.0668
     2.0836   2.1226   2.1618   2.1657   2.2604   2.2690   2.3222   2.3721
     2.4034   2.4145   2.4498   2.4672   2.6128   2.6754   2.9937   3.1437

          k = 0.0000 0.2342 0.0000 ( 49004 PWs)   bands (ev):

   -17.2542 -17.2535 -17.2525 -17.2521 -13.0879 -13.0841 -13.0820 -13.0809
   -13.0737 -13.0683 -13.0674 -13.0672 -13.0322 -13.0320 -13.0316 -13.0314
   -13.0297 -13.0295 -13.0293 -13.0291 -13.0232 -13.0229 -13.0228 -13.0225
    -8.7406  -8.5419  -8.4762  -8.3128  -8.2805  -8.2690  -8.2119  -8.1943
    -8.1684  -8.0784  -8.0624  -8.0536  -4.8465  -4.3581  -4.2294  -4.1304
    -4.1227  -4.1161  -4.1118  -4.1015  -4.0823  -4.0817  -4.0761  -4.0740
    -4.0663  -4.0289  -3.9929  -3.6293   0.0358   0.1964   0.2177   0.3120
     0.3815   0.4067   1.1754   1.2820   1.2822   1.3581   1.4380   1.4873
     1.5051   1.6046   1.7517   1.8638   1.9796   1.9821   2.0242   2.0481
     2.1171   2.1202   2.1677   2.1698   2.1890   2.2846   2.3360   2.3396
     2.3942   2.4111   2.4580   2.5156   2.7004   2.7264   2.7533   3.1407

          k = 0.0000 0.2342 0.2264 ( 48988 PWs)   bands (ev):

   -17.2540 -17.2537 -17.2524 -17.2522 -13.0843 -13.0826 -13.0821 -13.0788
   -13.0772 -13.0719 -13.0674 -13.0673 -13.0320 -13.0319 -13.0317 -13.0316
   -13.0297 -13.0296 -13.0292 -13.0291 -13.0232 -13.0230 -13.0227 -13.0226
    -8.7057  -8.6141  -8.4497  -8.3804  -8.2175  -8.2111  -8.2040  -8.1925
    -8.1798  -8.0948  -8.0743  -8.0662  -4.7317  -4.4849  -4.1555  -4.1255
    -4.1242  -4.1133  -4.1096  -4.1048  -4.0914  -4.0819  -4.0802  -4.0660
    -4.0618  -4.0490  -3.9686  -3.7750   0.2533   0.2715   0.3295   0.3509
     0.4907   0.5680   1.1337   1.2192   1.2619   1.3134   1.3289   1.4128
     1.5219   1.6078   1.6268   1.8251   1.8285   1.9369   1.9426   2.0265
     2.0401   2.1102   2.1197   2.1424   2.2708   2.3178   2.3598   2.3763
     2.4047   2.4080   2.4370   2.4853   2.6590   2.6972   2.7308   2.8856

          k = 0.0000-0.4684 0.0000 ( 48914 PWs)   bands (ev):

   -17.2534 -17.2534 -17.2528 -17.2528 -13.0857 -13.0857 -13.0751 -13.0751
   -13.0745 -13.0745 -13.0704 -13.0704 -13.0321 -13.0321 -13.0315 -13.0315
   -13.0295 -13.0295 -13.0293 -13.0293 -13.0230 -13.0230 -13.0227 -13.0227
    -8.6322  -8.6322  -8.4343  -8.4343  -8.2751  -8.2751  -8.1467  -8.1467
    -8.1287  -8.1287  -8.0878  -8.0878  -4.5336  -4.5336  -4.1618  -4.1618
    -4.1173  -4.1173  -4.0943  -4.0943  -4.0924  -4.0924  -4.0770  -4.0770
    -4.0568  -4.0568  -3.9233  -3.9233   0.1117   0.1117   0.6483   0.6483
     0.8367   0.8367   0.9139   0.9139   0.9990   0.9990   1.3232   1.3232
     1.6190   1.6190   1.7414   1.7414   1.8515   1.8515   2.0263   2.0263
     2.0971   2.0971   2.1299   2.1299   2.2277   2.2277   2.3465   2.3465
     2.3986   2.3986   2.4568   2.4568   2.6449   2.6449   2.8712   2.8712

          k = 0.0000-0.4684 0.2264 ( 48958 PWs)   bands (ev):

   -17.2532 -17.2532 -17.2529 -17.2529 -13.0821 -13.0821 -13.0760 -13.0760
   -13.0744 -13.0744 -13.0732 -13.0732 -13.0320 -13.0320 -13.0317 -13.0317
   -13.0294 -13.0294 -13.0294 -13.0294 -13.0230 -13.0230 -13.0228 -13.0228
    -8.5989  -8.5989  -8.5104  -8.5104  -8.2022  -8.2022  -8.1436  -8.1436
    -8.1328  -8.1328  -8.1167  -8.1167  -4.4285  -4.4285  -4.2207  -4.2207
    -4.1205  -4.1205  -4.1052  -4.1052  -4.0908  -4.0908  -4.0736  -4.0736
    -4.0544  -4.0544  -3.9992  -3.9992   0.4526   0.4526   0.6906   0.6906
     0.7710   0.7710   0.9305   0.9305   0.9704   0.9704   1.2274   1.2274
     1.6734   1.6734   1.7233   1.7233   1.7988   1.7988   1.8974   1.8974
     1.9466   1.9466   1.9837   1.9837   2.3281   2.3281   2.3930   2.3930
     2.4036   2.4036   2.4778   2.4778   2.6549   2.6549   2.7132   2.7132

          k = 0.2501 0.0000 0.0000 ( 48921 PWs)   bands (ev):

   -17.2543 -17.2537 -17.2524 -17.2520 -13.0879 -13.0841 -13.0820 -13.0809
   -13.0737 -13.0683 -13.0674 -13.0672 -13.0322 -13.0320 -13.0316 -13.0314
   -13.0297 -13.0295 -13.0293 -13.0291 -13.0232 -13.0229 -13.0228 -13.0225
    -8.7372  -8.5373  -8.4596  -8.2830  -8.2811  -8.2712  -8.2485  -8.2254
    -8.1535  -8.0830  -8.0681  -8.0532  -4.8443  -4.3499  -4.2061  -4.1222
    -4.1194  -4.1135  -4.1095  -4.1028  -4.1027  -4.0834  -4.0787  -4.0679
    -4.0598  -4.0357  -3.9887  -3.6325   0.0345   0.1885   0.2015   0.3254
     0.3396   0.4761   1.1429   1.1877   1.3164   1.3851   1.5046   1.5076
     1.5076   1.6123   1.8322   1.8522   1.9876   1.9945   2.0253   2.0384
     2.1231   2.1300   2.1788   2.2116   2.2201   2.2311   2.2460   2.3689
     2.3816   2.4108   2.4559   2.5109   2.6257   2.6858   2.7153   3.0598

          k = 0.2501 0.0000 0.2264 ( 48983 PWs)   bands (ev):

   -17.2541 -17.2538 -17.2523 -17.2521 -13.0843 -13.0826 -13.0821 -13.0788
   -13.0772 -13.0719 -13.0674 -13.0673 -13.0320 -13.0319 -13.0317 -13.0316
   -13.0296 -13.0296 -13.0292 -13.0291 -13.0232 -13.0230 -13.0227 -13.0226
    -8.7022  -8.6104  -8.4329  -8.3630  -8.2442  -8.2332  -8.2056  -8.1997
    -8.1655  -8.0948  -8.0786  -8.0711  -4.7286  -4.4789  -4.1378  -4.1296
    -4.1257  -4.1162  -4.0963  -4.0945  -4.0888  -4.0830  -4.0757  -4.0632
    -4.0597  -4.0569  -3.9747  -3.7824   0.2197   0.2650   0.3218   0.4216
     0.4754   0.5621   1.1099   1.1557   1.2216   1.3454   1.3914   1.3960
     1.5836   1.6236   1.6442   1.7990   1.9280   1.9442   2.0391   2.0419
     2.0683   2.0891   2.1576   2.1957   2.2510   2.2545   2.3146   2.3663
     2.3880   2.4025   2.4256   2.4795   2.5819   2.6057   2.6941   2.7775

          k = 0.2501 0.2342 0.0000 ( 48919 PWs)   bands (ev):

   -17.2540 -17.2534 -17.2526 -17.2522 -13.0882 -13.0847 -13.0810 -13.0785
   -13.0733 -13.0706 -13.0690 -13.0663 -13.0321 -13.0320 -13.0316 -13.0314
   -13.0296 -13.0295 -13.0293 -13.0292 -13.0232 -13.0229 -13.0228 -13.0225
    -8.7027  -8.5024  -8.4972  -8.2806  -8.2802  -8.2794  -8.2613  -8.2511
    -8.1406  -8.1005  -8.0930  -8.0320  -4.7429  -4.2954  -4.2789  -4.1193
    -4.1120  -4.1106  -4.1103  -4.0994  -4.0907  -4.0774  -4.0738  -4.0720
    -4.0686  -4.0201  -4.0069  -3.7219   0.0522   0.1044   0.1659   0.2525
     0.7091   0.8223   0.8613   1.0361   1.2628   1.2719   1.2964   1.5482
     1.5667   1.7090   1.7996   1.9208   1.9604   1.9799   2.0520   2.0658
     2.0761   2.1173   2.1369   2.1452   2.2217   2.2808   2.3252   2.3280
     2.3401   2.3644   2.4469   2.4782   2.6074   2.7150   2.7521   3.0615

          k = 0.2501 0.2342 0.2264 ( 48969 PWs)   bands (ev):

   -17.2538 -17.2536 -17.2525 -17.2523 -13.0852 -13.0816 -13.0815 -13.0776
   -13.0758 -13.0733 -13.0688 -13.0677 -13.0320 -13.0319 -13.0317 -13.0316
   -13.0296 -13.0295 -13.0293 -13.0292 -13.0231 -13.0229 -13.0228 -13.0226
    -8.6674  -8.5740  -8.4705  -8.3849  -8.2666  -8.2619  -8.2060  -8.1727
    -8.1466  -8.1129  -8.0959  -8.0613  -4.6323  -4.3956  -4.2062  -4.1203
    -4.1188  -4.1149  -4.1039  -4.0928  -4.0880  -4.0820  -4.0755  -4.0702
    -4.0618  -4.0412  -4.0106  -3.8605   0.1353   0.1982   0.4120   0.5206
     0.7596   0.7777   0.8993   0.9619   1.1375   1.2494   1.3115   1.3655
     1.5756   1.6826   1.7090   1.8101   1.8686   1.9147   1.9351   1.9702
     2.0758   2.1040   2.1844   2.2151   2.2618   2.3073   2.3230   2.3494
     2.3726   2.3863   2.4376   2.4563   2.5893   2.6180   2.6985   2.8031

          k = 0.2501-0.4684 0.0000 ( 48942 PWs)   bands (ev):

   -17.2533 -17.2533 -17.2528 -17.2528 -13.0870 -13.0870 -13.0776 -13.0776
   -13.0732 -13.0732 -13.0680 -13.0680 -13.0321 -13.0321 -13.0315 -13.0315
   -13.0295 -13.0295 -13.0293 -13.0293 -13.0230 -13.0230 -13.0227 -13.0227
    -8.6103  -8.6103  -8.3938  -8.3938  -8.2796  -8.2796  -8.2187  -8.2187
    -8.1775  -8.1775  -8.0408  -8.0408  -4.5099  -4.5099  -4.1448  -4.1448
    -4.1152  -4.1152  -4.0956  -4.0956  -4.0883  -4.0883  -4.0750  -4.0750
    -4.0617  -4.0617  -3.9017  -3.9017   0.1039   0.1039   0.3428   0.3428
     0.4912   0.4912   1.1654   1.1654   1.2423   1.2423   1.3634   1.3634
     1.6412   1.6412   1.8458   1.8458   1.9559   1.9559   2.0395   2.0395
     2.1207   2.1207   2.2125   2.2125   2.2183   2.2183   2.2742   2.2742
     2.3409   2.3409   2.3929   2.3929   2.6498   2.6498   2.8764   2.8764

          k = 0.2501-0.4684 0.2264 ( 48988 PWs)   bands (ev):

   -17.2532 -17.2532 -17.2529 -17.2529 -13.0839 -13.0839 -13.0790 -13.0790
   -13.0727 -13.0727 -13.0702 -13.0702 -13.0320 -13.0320 -13.0317 -13.0317
   -13.0294 -13.0294 -13.0294 -13.0294 -13.0229 -13.0229 -13.0228 -13.0228
    -8.5750  -8.5750  -8.4805  -8.4805  -8.2336  -8.2336  -8.2201  -8.2201
    -8.1413  -8.1413  -8.0695  -8.0695  -4.4081  -4.4081  -4.2090  -4.2090
    -4.1140  -4.1140  -4.1042  -4.1042  -4.0810  -4.0810  -4.0722  -4.0722
    -4.0519  -4.0519  -3.9886  -3.9886   0.3547   0.3547   0.4257   0.4257
     0.5104   0.5104   1.1628   1.1628   1.2106   1.2106   1.2358   1.2358
     1.5709   1.5709   1.7641   1.7641   1.8959   1.8959   1.9949   1.9949
     2.0866   2.0866   2.1205   2.1205   2.3042   2.3042   2.3382   2.3382
     2.3728   2.3728   2.4187   2.4187   2.6279   2.6279   2.6665   2.6665

          k =-0.5002 0.0000 0.0000 ( 48876 PWs)   bands (ev):

   -17.2537 -17.2537 -17.2524 -17.2524 -13.0856 -13.0856 -13.0752 -13.0752
   -13.0746 -13.0746 -13.0704 -13.0704 -13.0321 -13.0321 -13.0315 -13.0315
   -13.0295 -13.0295 -13.0293 -13.0293 -13.0230 -13.0230 -13.0227 -13.0227
    -8.6209  -8.6209  -8.4179  -8.4179  -8.2779  -8.2779  -8.1702  -8.1702
    -8.1475  -8.1475  -8.0815  -8.0815  -4.5240  -4.5240  -4.1584  -4.1584
    -4.1149  -4.1149  -4.0942  -4.0942  -4.0704  -4.0704  -4.0635  -4.0635
    -4.0478  -4.0478  -3.9523  -3.9523   0.1138   0.1138   0.5996   0.5996
     0.8133   0.8133   0.9262   0.9262   1.1274   1.1274   1.2703   1.2703
     1.6005   1.6005   1.8202   1.8202   1.9215   1.9215   2.0333   2.0333
     2.0627   2.0627   2.2148   2.2148   2.2280   2.2280   2.2856   2.2856
     2.3738   2.3738   2.4519   2.4519   2.5066   2.5066   2.7670   2.7670

          k =-0.5002 0.0000 0.2264 ( 48902 PWs)   bands (ev):

   -17.2537 -17.2537 -17.2524 -17.2524 -13.0821 -13.0821 -13.0761 -13.0761
   -13.0744 -13.0744 -13.0732 -13.0732 -13.0320 -13.0320 -13.0317 -13.0317
   -13.0294 -13.0294 -13.0294 -13.0294 -13.0230 -13.0230 -13.0228 -13.0228
    -8.5875  -8.5875  -8.4979  -8.4979  -8.2020  -8.2020  -8.1711  -8.1711
    -8.1466  -8.1466  -8.1105  -8.1105  -4.4162  -4.4162  -4.2035  -4.2035
    -4.1176  -4.1176  -4.1058  -4.1058  -4.0777  -4.0777  -4.0650  -4.0650
    -4.0449  -4.0449  -4.0310  -4.0310   0.4538   0.4538   0.6437   0.6437
     0.7537   0.7537   0.9443   0.9443   1.0390   1.0390   1.1744   1.1744
     1.6838   1.6838   1.8300   1.8300   1.8512   1.8512   1.9507   1.9507
     1.9647   1.9647   2.0886   2.0886   2.3103   2.3103   2.3350   2.3350
     2.3813   2.3813   2.4339   2.4339   2.5080   2.5080   2.5467   2.5467

          k =-0.5002 0.2342 0.0000 ( 48934 PWs)   bands (ev):

   -17.2536 -17.2536 -17.2525 -17.2525 -13.0870 -13.0870 -13.0776 -13.0776
   -13.0733 -13.0733 -13.0680 -13.0680 -13.0321 -13.0321 -13.0315 -13.0315
   -13.0295 -13.0295 -13.0293 -13.0293 -13.0230 -13.0230 -13.0227 -13.0227
    -8.6037  -8.6037  -8.3821  -8.3821  -8.2815  -8.2815  -8.2269  -8.2269
    -8.1905  -8.1905  -8.0415  -8.0415  -4.5048  -4.5048  -4.1465  -4.1465
    -4.1026  -4.1026  -4.1025  -4.1025  -4.0816  -4.0816  -4.0707  -4.0707
    -4.0546  -4.0546  -3.9134  -3.9134   0.1036   0.1036   0.3319   0.3319
     0.5012   0.5012   1.1227   1.1227   1.2520   1.2520   1.4336   1.4336
     1.6539   1.6539   1.8654   1.8654   1.9865   1.9865   2.0619   2.0619
     2.0856   2.0856   2.1918   2.1918   2.2073   2.2073   2.2635   2.2635
     2.3115   2.3115   2.3979   2.3979   2.6086   2.6086   2.8372   2.8372

          k =-0.5002 0.2342 0.2264 ( 48884 PWs)   bands (ev):

   -17.2535 -17.2535 -17.2526 -17.2526 -13.0839 -13.0839 -13.0790 -13.0790
   -13.0727 -13.0727 -13.0702 -13.0702 -13.0319 -13.0319 -13.0317 -13.0317
   -13.0294 -13.0294 -13.0293 -13.0293 -13.0229 -13.0229 -13.0228 -13.0228
    -8.5683  -8.5683  -8.4728  -8.4728  -8.2412  -8.2412  -8.2238  -8.2238
    -8.1483  -8.1483  -8.0711  -8.0711  -4.4019  -4.4019  -4.2019  -4.2019
    -4.1062  -4.1062  -4.0996  -4.0996  -4.0877  -4.0877  -4.0693  -4.0693
    -4.0452  -4.0452  -4.0016  -4.0016   0.3555   0.3555   0.4162   0.4162
     0.5108   0.5108   1.1007   1.1007   1.2383   1.2383   1.2769   1.2769
     1.6011   1.6011   1.7927   1.7927   1.9039   1.9039   2.0577   2.0577
     2.1123   2.1123   2.1596   2.1596   2.2616   2.2616   2.2871   2.2871
     2.3264   2.3264   2.4127   2.4127   2.5755   2.5755   2.6035   2.6035

          k =-0.5002-0.4684 0.0000 ( 48992 PWs)   bands (ev):

   -17.2533 -17.2533 -17.2528 -17.2528 -13.0881 -13.0881 -13.0792 -13.0792
   -13.0722 -13.0722 -13.0664 -13.0664 -13.0321 -13.0321 -13.0315 -13.0315
   -13.0295 -13.0295 -13.0293 -13.0293 -13.0230 -13.0230 -13.0227 -13.0227
    -8.5835  -8.5835  -8.3024  -8.3024  -8.2956  -8.2956  -8.2772  -8.2772
    -8.2596  -8.2596  -8.0182  -8.0182  -4.4859  -4.4859  -4.1287  -4.1287
    -4.1098  -4.1098  -4.0977  -4.0977  -4.0819  -4.0819  -4.0734  -4.0734
    -4.0690  -4.0690  -3.8808  -3.8808   0.0910   0.0910   0.1707   0.1707
     0.3294   0.3294   1.1675   1.1675   1.2965   1.2965   1.6302   1.6302
     1.6637   1.6637   1.9230   1.9230   1.9663   1.9663   2.0270   2.0270
     2.1249   2.1249   2.1757   2.1757   2.2137   2.2137   2.2333   2.2333
     2.2713   2.2713   2.4322   2.4322   2.6925   2.6925   2.9476   2.9476

          k =-0.5002-0.4684 0.2264 ( 48964 PWs)   bands (ev):

   -17.2532 -17.2532 -17.2529 -17.2529 -13.0852 -13.0852 -13.0807 -13.0807
   -13.0714 -13.0714 -13.0686 -13.0686 -13.0319 -13.0319 -13.0317 -13.0317
   -13.0294 -13.0294 -13.0293 -13.0293 -13.0229 -13.0229 -13.0228 -13.0228
    -8.5451  -8.5451  -8.4389  -8.4389  -8.2769  -8.2769  -8.2763  -8.2763
    -8.1472  -8.1472  -8.0512  -8.0512  -4.3877  -4.3877  -4.1984  -4.1984
    -4.1065  -4.1065  -4.1044  -4.1044  -4.0705  -4.0705  -4.0609  -4.0609
    -4.0598  -4.0598  -3.9765  -3.9765   0.2032   0.2032   0.2640   0.2640
     0.4819   0.4819   1.1872   1.1872   1.2344   1.2344   1.3505   1.3505
     1.6291   1.6291   1.7776   1.7776   2.0392   2.0392   2.0677   2.0677
     2.1355   2.1355   2.1365   2.1365   2.2260   2.2260   2.2332   2.2332
     2.3463   2.3463   2.4313   2.4313   2.6637   2.6637   2.7234   2.7234

     highest occupied level (ev):     3.4239

!    total energy              =   -8165.86060547 Ry
     estimated scf accuracy    <          9.8E-12 Ry

     The total energy is the sum of the following terms:
     one-electron contribution =    -324.96068015 Ry
     hartree contribution      =     251.27008753 Ry
     xc contribution           =    -792.77874589 Ry
     ewald contribution        =    -649.77205031 Ry
     one-center paw contrib.   =   -6649.61921665 Ry

     convergence has been achieved in  12 iterations

     Forces acting on atoms (cartesian axes, Ry/au):

     atom    1 type  1   force =     0.00023360   -0.00013984    0.00000000
     atom    2 type  1   force =    -0.00023360    0.00013984    0.00000000
     atom    3 type  1   force =     0.00023360    0.00013984    0.00000000
     atom    4 type  1   force =    -0.00023360   -0.00013984    0.00000000
     atom    5 type  2   force =    -0.00000000    0.00000000    0.00000000
     atom    6 type  2   force =     0.00000000    0.00000000   -0.00000000
     atom    7 type  2   force =     0.00000000   -0.00000000    0.00000000
     atom    8 type  2   force =     0.00000000    0.00000000    0.00000000
     atom    9 type  3   force =    -0.00040022   -0.00016076    0.00000000
     atom   10 type  3   force =     0.00040022    0.00016076    0.00000000
     atom   11 type  3   force =    -0.00040022    0.00016076    0.00000000
     atom   12 type  3   force =     0.00040022   -0.00016076    0.00000000
     atom   13 type  3   force =    -0.00004163   -0.00012961    0.00001976
     atom   14 type  3   force =     0.00004163    0.00012961    0.00001976
     atom   15 type  3   force =    -0.00004163    0.00012961   -0.00001976
     atom   16 type  3   force =     0.00004163   -0.00012961   -0.00001976
     atom   17 type  3   force =     0.00004163    0.00012961   -0.00001976
     atom   18 type  3   force =    -0.00004163   -0.00012961   -0.00001976
     atom   19 type  3   force =     0.00004163   -0.00012961    0.00001976
     atom   20 type  3   force =    -0.00004163    0.00012961    0.00001976

     Total force =     0.001092     Total SCF correction =     0.000009


     Computing stress (Cartesian axis) and pressure

          total   stress  (Ry/bohr**3)                   (kbar)     P=        0.08
  -0.00000059   0.00000000   0.00000000           -0.09        0.00        0.00
   0.00000000   0.00000105   0.00000000            0.00        0.15        0.00
   0.00000000   0.00000000   0.00000108            0.00        0.00        0.16


     number of scf cycles    =   7
     number of bfgs steps    =   6

     enthalpy old            =   -8165.8605866177 Ry
     enthalpy new            =   -8165.8606054720 Ry

     CASE: enthalpy_new < enthalpy_old

     new trust radius        =       0.0101743758 bohr
     new conv_thr            =            1.0E-11 Ry

     new unit-cell volume =   6233.63918 a.u.^3 (   923.73002 Ang^3 )
     density =      5.18309 g/cm^3

CELL_PARAMETERS (angstrom)
   8.372683795   0.000000000   0.000000000
   0.000000000   8.948746060   0.000000000
   0.000000000   0.000000000  12.328725560

ATOMIC_POSITIONS (angstrom)
Cs            3.9113599800        3.7276489434        3.0821813901
Cs            4.4613238148        5.2210971163        9.2465441703
Cs           -0.2749819174        0.7467240864        9.2465441703
Cs            8.6476657122        8.2020219732        3.0821813901
Pb            4.1863418974        0.0000000000        0.0000000000
Pb            4.1863418974       -0.0000000000        6.1643627802
Pb            0.0000000000        4.4743730298        0.0000000000
Pb           -0.0000000000        4.4743730298        6.1643627802
I             4.8961729176        0.0629970142        3.0821813901
I             3.4765108771        8.8857490455        9.2465441703
I             0.7098310203        4.4113760156        9.2465441703
I             7.6628527745        4.5373700440        3.0821813901
I             5.7580744885        2.7322960902       11.8311083328
I             2.6146093063        6.2164499694        5.6667455527
I             1.5717325911        1.7420769396        0.4976172275
I             6.8009512036        7.2066691200        6.6619800077
I             2.6146093063        6.2164499694        0.4976172275
I             5.7580744885        2.7322960902        6.6619800077
I             6.8009512036        7.2066691200       11.8311083328
I             1.5717325911        1.7420769396        5.6667455527



     Writing output data file ./tmp/unit_tight.save/
     NEW-OLD atomic charge density approx. for the potential
     extrapolated charge  175.96958, renormalised to  176.00000

     total cpu time spent up to now is     2460.4 secs

     Self-consistent Calculation

     iteration #  1     ecut=    60.00 Ry     beta= 0.30
     Davidson diagonalization with overlap
     ethr =  1.00E-06,  avg # of iterations =  2.8

     Threshold (ethr) on eigenvalues was too large:
     Diagonalizing with lowered threshold

     Davidson diagonalization with overlap
     ethr =  5.54E-09,  avg # of iterations =  6.3

     total cpu time spent up to now is     2499.4 secs

     total energy              =   -8165.86059881 Ry
     estimated scf accuracy    <       0.00002518 Ry

     iteration #  2     ecut=    60.00 Ry     beta= 0.30
     Davidson diagonalization with overlap
     ethr =  1.43E-08,  avg # of iterations =  5.0

     total cpu time spent up to now is     2519.5 secs

     total energy              =   -8165.86061612 Ry
     estimated scf accuracy    <       0.00000510 Ry

     iteration #  3     ecut=    60.00 Ry     beta= 0.30
     Davidson diagonalization with overlap
     ethr =  2.90E-09,  avg # of iterations =  1.3

     total cpu time spent up to now is     2531.9 secs

     total energy              =   -8165.86061616 Ry
     estimated scf accuracy    <       0.00000260 Ry

     iteration #  4     ecut=    60.00 Ry     beta= 0.30
     Davidson diagonalization with overlap
     ethr =  1.48E-09,  avg # of iterations =  4.0

     total cpu time spent up to now is     2548.0 secs

     total energy              =   -8165.86061716 Ry
     estimated scf accuracy    <       0.00000029 Ry

     iteration #  5     ecut=    60.00 Ry     beta= 0.30
     Davidson diagonalization with overlap
     ethr =  1.65E-10,  avg # of iterations =  4.7

     total cpu time spent up to now is     2563.0 secs

     total energy              =   -8165.86061727 Ry
     estimated scf accuracy    <       0.00000034 Ry

     iteration #  6     ecut=    60.00 Ry     beta= 0.30
     Davidson diagonalization with overlap
     ethr =  1.65E-10,  avg # of iterations =  2.0

     total cpu time spent up to now is     2577.1 secs

     total energy              =   -8165.86061738 Ry
     estimated scf accuracy    <       0.00000003 Ry

     iteration #  7     ecut=    60.00 Ry     beta= 0.30
     Davidson diagonalization with overlap
     ethr =  1.90E-11,  avg # of iterations =  6.0

     total cpu time spent up to now is     2596.5 secs

     total energy              =   -8165.86061745 Ry
     estimated scf accuracy    <       0.00000003 Ry

     iteration #  8     ecut=    60.00 Ry     beta= 0.30
     Davidson diagonalization with overlap
     ethr =  1.68E-11,  avg # of iterations =  1.0

     total cpu time spent up to now is     2608.5 secs

     total energy              =   -8165.86061746 Ry
     estimated scf accuracy    <       0.00000003 Ry

     iteration #  9     ecut=    60.00 Ry     beta= 0.30
     Davidson diagonalization with overlap
     ethr =  1.52E-11,  avg # of iterations =  2.5

     total cpu time spent up to now is     2622.6 secs

     total energy              =   -8165.86061748 Ry
     estimated scf accuracy    <          8.6E-11 Ry

     iteration # 10     ecut=    60.00 Ry     beta= 0.30
     Davidson diagonalization with overlap
     ethr =  1.00E-13,  avg # of iterations =  7.4

     total cpu time spent up to now is     2649.3 secs

     total energy              =   -8165.86061748 Ry
     estimated scf accuracy    <          2.4E-09 Ry

     iteration # 11     ecut=    60.00 Ry     beta= 0.30
     Davidson diagonalization with overlap
     ethr =  1.00E-13,  avg # of iterations =  4.0

     total cpu time spent up to now is     2666.2 secs

     total energy              =   -8165.86061748 Ry
     estimated scf accuracy    <          3.2E-10 Ry

     iteration # 12     ecut=    60.00 Ry     beta= 0.30
     Davidson diagonalization with overlap
     ethr =  1.00E-13,  avg # of iterations =  4.0

     total cpu time spent up to now is     2681.7 secs

     End of self-consistent calculation

          k = 0.0000 0.0000 0.0000 ( 49019 PWs)   bands (ev):

   -17.2533 -17.2526 -17.2510 -17.2505 -13.0869 -13.0830 -13.0823 -13.0795
   -13.0724 -13.0652 -13.0618 -13.0617 -13.0297 -13.0295 -13.0291 -13.0289
   -13.0273 -13.0272 -13.0267 -13.0265 -13.0208 -13.0204 -13.0202 -13.0198
    -8.7788  -8.5801  -8.3344  -8.2857  -8.2805  -8.2675  -8.2546  -8.2341
    -8.2177  -8.0470  -8.0447  -8.0324  -4.9753  -4.4524  -4.1249  -4.1204
    -4.1171  -4.1147  -4.1114  -4.1098  -4.1023  -4.0967  -4.0885  -4.0661
    -4.0541  -4.0460  -3.9143  -3.4594  -0.0211   0.0340   0.0598   0.1919
     0.1935   0.2572   1.1115   1.4047   1.4167   1.4295   1.4432   1.4988
     1.7256   1.9206   1.9253   1.9358   2.0187   2.0227   2.0327   2.0648
     2.0704   2.0749   2.1032   2.1064   2.1597   2.3622   2.3837   2.4206
     2.4401   2.4506   2.4735   2.5002   2.6983   2.7018   2.9658   3.4280

          k = 0.0000 0.0000 0.2265 ( 48974 PWs)   bands (ev):

   -17.2531 -17.2527 -17.2508 -17.2506 -13.0833 -13.0826 -13.0823 -13.0762
   -13.0760 -13.0689 -13.0618 -13.0618 -13.0296 -13.0294 -13.0293 -13.0291
   -13.0273 -13.0272 -13.0266 -13.0266 -13.0207 -13.0205 -13.0201 -13.0199
    -8.7436  -8.6514  -8.3189  -8.2866  -8.2731  -8.2613  -8.2327  -8.2223
    -8.2010  -8.0898  -8.0428  -8.0356  -4.8536  -4.5915  -4.1249  -4.1238
    -4.1226  -4.1204  -4.1080  -4.0991  -4.0820  -4.0810  -4.0684  -4.0640
    -4.0631  -4.0558  -3.8562  -3.6190   0.0597   0.0935   0.1021   0.1666
     0.4151   0.6161   1.1110   1.1823   1.2948   1.4627   1.4709   1.5147
     1.5490   1.6672   1.8478   1.9346   1.9465   1.9786   2.0578   2.0679
     2.0828   2.1229   2.1629   2.1660   2.2630   2.2700   2.3233   2.3746
     2.4032   2.4168   2.4531   2.4698   2.6158   2.6777   2.9940   3.1446

          k = 0.0000 0.2340 0.0000 ( 49004 PWs)   bands (ev):

   -17.2529 -17.2523 -17.2513 -17.2508 -13.0860 -13.0820 -13.0794 -13.0785
   -13.0715 -13.0661 -13.0648 -13.0646 -13.0297 -13.0296 -13.0291 -13.0289
   -13.0272 -13.0271 -13.0268 -13.0266 -13.0207 -13.0203 -13.0203 -13.0199
    -8.7406  -8.5388  -8.4769  -8.3102  -8.2829  -8.2717  -8.2089  -8.1910
    -8.1682  -8.0757  -8.0597  -8.0529  -4.8466  -4.3534  -4.2296  -4.1290
    -4.1212  -4.1147  -4.1103  -4.1000  -4.0808  -4.0806  -4.0751  -4.0727
    -4.0650  -4.0273  -3.9925  -3.6259   0.0307   0.1910   0.2202   0.3125
     0.3842   0.4085   1.1772   1.2822   1.2823   1.3598   1.4407   1.4867
     1.5075   1.6052   1.7536   1.8617   1.9812   1.9857   2.0269   2.0507
     2.1182   2.1213   2.1683   2.1693   2.1908   2.2840   2.3391   2.3417
     2.3963   2.4133   2.4608   2.5180   2.7021   2.7281   2.7586   3.1461

          k = 0.0000 0.2340 0.2265 ( 48988 PWs)   bands (ev):

   -17.2528 -17.2524 -17.2512 -17.2509 -13.0823 -13.0801 -13.0795 -13.0767
   -13.0750 -13.0698 -13.0648 -13.0647 -13.0296 -13.0294 -13.0293 -13.0291
   -13.0272 -13.0271 -13.0267 -13.0267 -13.0206 -13.0204 -13.0202 -13.0200
    -8.7053  -8.6126  -8.4502  -8.3803  -8.2178  -8.2090  -8.2021  -8.1911
    -8.1796  -8.0945  -8.0717  -8.0635  -4.7307  -4.4815  -4.1546  -4.1240
    -4.1227  -4.1119  -4.1081  -4.1034  -4.0899  -4.0807  -4.0790  -4.0647
    -4.0604  -4.0477  -3.9688  -3.7734   0.2562   0.2711   0.3334   0.3524
     0.4896   0.5636   1.1358   1.2210   1.2634   1.3139   1.3296   1.4138
     1.5233   1.6086   1.6271   1.8247   1.8306   1.9363   1.9448   2.0269
     2.0411   2.1113   2.1208   2.1435   2.2728   2.3191   2.3622   2.3772
     2.4073   2.4089   2.4390   2.4876   2.6617   2.6992   2.7324   2.8877

          k = 0.0000-0.4681 0.0000 ( 48914 PWs)   bands (ev):

   -17.2521 -17.2521 -17.2515 -17.2515 -13.0837 -13.0837 -13.0726 -13.0726
   -13.0719 -13.0719 -13.0682 -13.0682 -13.0296 -13.0296 -13.0290 -13.0290
   -13.0270 -13.0270 -13.0269 -13.0269 -13.0205 -13.0205 -13.0201 -13.0201
    -8.6325  -8.6325  -8.4314  -8.4314  -8.2778  -8.2778  -8.1438  -8.1438
    -8.1257  -8.1257  -8.0874  -8.0874  -4.5341  -4.5341  -4.1596  -4.1596
    -4.1156  -4.1156  -4.0927  -4.0927  -4.0914  -4.0914  -4.0760  -4.0760
    -4.0553  -4.0553  -3.9203  -3.9203   0.1060   0.1060   0.6496   0.6496
     0.8394   0.8394   0.9141   0.9141   1.0011   1.0011   1.3236   1.3236
     1.6180   1.6180   1.7425   1.7425   1.8530   1.8530   2.0287   2.0287
     2.0994   2.0994   2.1316   2.1316   2.2298   2.2298   2.3496   2.3496
     2.3996   2.3996   2.4581   2.4581   2.6471   2.6471   2.8772   2.8772

          k = 0.0000-0.4681 0.2265 ( 48958 PWs)   bands (ev):

   -17.2520 -17.2520 -17.2517 -17.2517 -13.0801 -13.0801 -13.0737 -13.0737
   -13.0718 -13.0718 -13.0708 -13.0708 -13.0295 -13.0295 -13.0292 -13.0292
   -13.0270 -13.0270 -13.0269 -13.0269 -13.0204 -13.0204 -13.0202 -13.0202
    -8.5989  -8.5989  -8.5094  -8.5094  -8.2029  -8.2029  -8.1408  -8.1408
    -8.1299  -8.1299  -8.1164  -8.1164  -4.4280  -4.4280  -4.2184  -4.2184
    -4.1191  -4.1191  -4.1037  -4.1037  -4.0896  -4.0896  -4.0722  -4.0722
    -4.0533  -4.0533  -3.9977  -3.9977   0.4497   0.4497   0.6921   0.6921
     0.7731   0.7731   0.9322   0.9322   0.9710   0.9710   1.2285   1.2285
     1.6737   1.6737   1.7236   1.7236   1.7996   1.7996   1.8990   1.8990
     1.9487   1.9487   1.9846   1.9846   2.3307   2.3307   2.3948   2.3948
     2.4056   2.4056   2.4788   2.4788   2.6572   2.6572   2.7163   2.7163

          k = 0.2501 0.0000 0.0000 ( 48921 PWs)   bands (ev):

   -17.2530 -17.2524 -17.2511 -17.2507 -13.0860 -13.0820 -13.0794 -13.0785
   -13.0715 -13.0661 -13.0648 -13.0646 -13.0297 -13.0295 -13.0291 -13.0289
   -13.0272 -13.0271 -13.0268 -13.0266 -13.0207 -13.0203 -13.0203 -13.0199
    -8.7371  -8.5341  -8.4604  -8.2836  -8.2797  -8.2737  -8.2463  -8.2229
    -8.1524  -8.0805  -8.0655  -8.0523  -4.8444  -4.3451  -4.2066  -4.1208
    -4.1179  -4.1120  -4.1080  -4.1015  -4.1011  -4.0821  -4.0775  -4.0667
    -4.0586  -4.0340  -3.9881  -3.6290   0.0295   0.1895   0.1952   0.3276
     0.3417   0.4793   1.1435   1.1897   1.3179   1.3851   1.5073   1.5075
     1.5101   1.6118   1.8342   1.8520   1.9903   1.9966   2.0287   2.0393
     2.1256   2.1306   2.1799   2.2113   2.2202   2.2338   2.2489   2.3714
     2.3830   2.4118   2.4569   2.5133   2.6271   2.6869   2.7201   3.0646

          k = 0.2501 0.0000 0.2265 ( 48983 PWs)   bands (ev):

   -17.2528 -17.2525 -17.2510 -17.2508 -13.0823 -13.0801 -13.0795 -13.0767
   -13.0750 -13.0698 -13.0648 -13.0647 -13.0296 -13.0294 -13.0293 -13.0291
   -13.0272 -13.0271 -13.0267 -13.0267 -13.0206 -13.0204 -13.0202 -13.0200
    -8.7019  -8.6089  -8.4335  -8.3631  -8.2418  -8.2309  -8.2050  -8.2004
    -8.1646  -8.0944  -8.0760  -8.0685  -4.7276  -4.4755  -4.1368  -4.1283
    -4.1243  -4.1147  -4.0947  -4.0931  -4.0875  -4.0818  -4.0745  -4.0621
    -4.0584  -4.0555  -3.9746  -3.7807   0.2210   0.2663   0.3232   0.4251
     0.4750   0.5578   1.1120   1.1567   1.2234   1.3464   1.3927   1.3970
     1.5846   1.6242   1.6447   1.7990   1.9298   1.9447   2.0397   2.0440
     2.0705   2.0895   2.1597   2.1977   2.2509   2.2556   2.3161   2.3687
     2.3895   2.4026   2.4276   2.4820   2.5842   2.6075   2.6951   2.7787

          k = 0.2501 0.2340 0.0000 ( 48919 PWs)   bands (ev):

   -17.2527 -17.2522 -17.2514 -17.2510 -13.0862 -13.0827 -13.0784 -13.0760
   -13.0709 -13.0684 -13.0664 -13.0639 -13.0297 -13.0296 -13.0291 -13.0290
   -13.0272 -13.0270 -13.0268 -13.0267 -13.0206 -13.0203 -13.0203 -13.0200
    -8.7028  -8.5034  -8.4942  -8.2832  -8.2810  -8.2768  -8.2604  -8.2479
    -8.1384  -8.0978  -8.0920  -8.0308  -4.7431  -4.2959  -4.2748  -4.1178
    -4.1105  -4.1091  -4.1090  -4.0980  -4.0894  -4.0761  -4.0726  -4.0709
    -4.0673  -4.0191  -4.0049  -3.7183   0.0471   0.1061   0.1595   0.2556
     0.7101   0.8229   0.8636   1.0386   1.2642   1.2724   1.2968   1.5482
     1.5694   1.7092   1.8013   1.9229   1.9608   1.9828   2.0538   2.0652
     2.0793   2.1196   2.1385   2.1462   2.2224   2.2827   2.3267   2.3299
     2.3424   2.3657   2.4480   2.4807   2.6087   2.7164   2.7574   3.0667

          k = 0.2501 0.2340 0.2265 ( 48969 PWs)   bands (ev):

   -17.2526 -17.2523 -17.2513 -17.2511 -13.0831 -13.0794 -13.0791 -13.0752
   -13.0736 -13.0711 -13.0662 -13.0652 -13.0295 -13.0294 -13.0292 -13.0291
   -13.0271 -13.0270 -13.0268 -13.0267 -13.0205 -13.0204 -13.0202 -13.0201
    -8.6672  -8.5727  -8.4714  -8.3854  -8.2638  -8.2592  -8.2064  -8.1720
    -8.1449  -8.1120  -8.0935  -8.0600  -4.6315  -4.3924  -4.2056  -4.1189
    -4.1175  -4.1133  -4.1025  -4.0913  -4.0866  -4.0809  -4.0743  -4.0690
    -4.0603  -4.0398  -4.0100  -3.8587   0.1373   0.2007   0.4095   0.5178
     0.7608   0.7788   0.9004   0.9638   1.1395   1.2507   1.3122   1.3665
     1.5771   1.6826   1.7106   1.8101   1.8698   1.9165   1.9360   1.9718
     2.0763   2.1042   2.1858   2.2164   2.2636   2.3093   2.3246   2.3504
     2.3741   2.3887   2.4395   2.4582   2.5913   2.6201   2.6997   2.8049

          k = 0.2501-0.4681 0.0000 ( 48942 PWs)   bands (ev):

   -17.2521 -17.2521 -17.2515 -17.2515 -13.0849 -13.0849 -13.0751 -13.0751
   -13.0707 -13.0707 -13.0657 -13.0657 -13.0296 -13.0296 -13.0290 -13.0290
   -13.0270 -13.0270 -13.0269 -13.0269 -13.0205 -13.0205 -13.0201 -13.0201
    -8.6108  -8.6108  -8.3909  -8.3909  -8.2820  -8.2820  -8.2163  -8.2163
    -8.1746  -8.1746  -8.0397  -8.0397  -4.5104  -4.5104  -4.1426  -4.1426
    -4.1136  -4.1136  -4.0941  -4.0941  -4.0872  -4.0872  -4.0738  -4.0738
    -4.0602  -4.0602  -3.8985  -3.8985   0.0980   0.0980   0.3441   0.3441
     0.4943   0.4943   1.1660   1.1660   1.2422   1.2422   1.3655   1.3655
     1.6415   1.6415   1.8473   1.8473   1.9584   1.9584   2.0397   2.0397
     2.1223   2.1223   2.2139   2.2139   2.2201   2.2201   2.2770   2.2770
     2.3420   2.3420   2.3953   2.3953   2.6515   2.6515   2.8824   2.8824

          k = 0.2501-0.4681 0.2265 ( 48988 PWs)   bands (ev):

   -17.2519 -17.2519 -17.2517 -17.2517 -13.0817 -13.0817 -13.0766 -13.0766
   -13.0702 -13.0702 -13.0679 -13.0679 -13.0295 -13.0295 -13.0292 -13.0292
   -13.0270 -13.0270 -13.0269 -13.0269 -13.0204 -13.0204 -13.0202 -13.0202
    -8.5753  -8.5753  -8.4799  -8.4799  -8.2324  -8.2324  -8.2178  -8.2178
    -8.1398  -8.1398  -8.0685  -8.0685  -4.4077  -4.4077  -4.2067  -4.2067
    -4.1126  -4.1126  -4.1028  -4.1028  -4.0798  -4.0798  -4.0708  -4.0708
    -4.0507  -4.0507  -3.9870  -3.9870   0.3552   0.3552   0.4262   0.4262
     0.5107   0.5107   1.1643   1.1643   1.2117   1.2117   1.2363   1.2363
     1.5717   1.5717   1.7651   1.7651   1.8956   1.8956   1.9962   1.9962
     2.0879   2.0879   2.1218   2.1218   2.3070   2.3070   2.3392   2.3392
     2.3757   2.3757   2.4197   2.4197   2.6297   2.6297   2.6692   2.6692

          k =-0.5003 0.0000 0.0000 ( 48876 PWs)   bands (ev):

   -17.2524 -17.2524 -17.2511 -17.2511 -13.0837 -13.0837 -13.0726 -13.0726
   -13.0720 -13.0720 -13.0682 -13.0682 -13.0296 -13.0296 -13.0290 -13.0290
   -13.0270 -13.0270 -13.0269 -13.0269 -13.0205 -13.0205 -13.0201 -13.0201
    -8.6211  -8.6211  -8.4146  -8.4146  -8.2806  -8.2806  -8.1678  -8.1678
    -8.1450  -8.1450  -8.0806  -8.0806  -4.5245  -4.5245  -4.1561  -4.1561
    -4.1134  -4.1134  -4.0927  -4.0927  -4.0692  -4.0692  -4.0623  -4.0623
    -4.0465  -4.0465  -3.9488  -3.9488   0.1078   0.1078   0.6008   0.6008
     0.8161   0.8161   0.9263   0.9263   1.1296   1.1296   1.2710   1.2710
     1.6006   1.6006   1.8220   1.8220   1.9246   1.9246   2.0365   2.0365
     2.0653   2.0653   2.2154   2.2154   2.2307   2.2307   2.2867   2.2867
     2.3738   2.3738   2.4526   2.4526   2.5077   2.5077   2.7720   2.7720

          k =-0.5003 0.0000 0.2265 ( 48902 PWs)   bands (ev):

   -17.2524 -17.2524 -17.2512 -17.2512 -13.0801 -13.0801 -13.0737 -13.0737
   -13.0719 -13.0719 -13.0708 -13.0708 -13.0295 -13.0295 -13.0292 -13.0292
   -13.0270 -13.0270 -13.0269 -13.0269 -13.0204 -13.0204 -13.0202 -13.0202
    -8.5874  -8.5874  -8.4969  -8.4969  -8.2024  -8.2024  -8.1688  -8.1688
    -8.1442  -8.1442  -8.1098  -8.1098  -4.4157  -4.4157  -4.2009  -4.2009
    -4.1161  -4.1161  -4.1044  -4.1044  -4.0766  -4.0766  -4.0639  -4.0639
    -4.0435  -4.0435  -4.0293  -4.0293   0.4508   0.4508   0.6449   0.6449
     0.7560   0.7560   0.9443   0.9443   1.0404   1.0404   1.1760   1.1760
     1.6842   1.6842   1.8318   1.8318   1.8522   1.8522   1.9536   1.9536
     1.9680   1.9680   2.0894   2.0894   2.3113   2.3113   2.3364   2.3364
     2.3822   2.3822   2.4352   2.4352   2.5089   2.5089   2.5485   2.5485

          k =-0.5003 0.2340 0.0000 ( 48934 PWs)   bands (ev):

   -17.2523 -17.2523 -17.2513 -17.2513 -13.0849 -13.0849 -13.0751 -13.0751
   -13.0707 -13.0707 -13.0657 -13.0657 -13.0296 -13.0296 -13.0290 -13.0290
   -13.0270 -13.0270 -13.0268 -13.0268 -13.0205 -13.0205 -13.0201 -13.0201
    -8.6043  -8.6043  -8.3789  -8.3789  -8.2839  -8.2839  -8.2246  -8.2246
    -8.1878  -8.1878  -8.0404  -8.0404  -4.5054  -4.5054  -4.1443  -4.1443
    -4.1012  -4.1012  -4.1011  -4.1011  -4.0802  -4.0802  -4.0694  -4.0694
    -4.0533  -4.0533  -3.9100  -3.9100   0.0977   0.0977   0.3332   0.3332
     0.5043   0.5043   1.1235   1.1235   1.2521   1.2521   1.4359   1.4359
     1.6545   1.6545   1.8666   1.8666   1.9888   1.9888   2.0649   2.0649
     2.0872   2.0872   2.1926   2.1926   2.2091   2.2091   2.2651   2.2651
     2.3125   2.3125   2.3990   2.3990   2.6101   2.6101   2.8427   2.8427

          k =-0.5003 0.2340 0.2265 ( 48884 PWs)   bands (ev):

   -17.2522 -17.2522 -17.2514 -17.2514 -13.0817 -13.0817 -13.0766 -13.0766
   -13.0702 -13.0702 -13.0679 -13.0679 -13.0295 -13.0295 -13.0292 -13.0292
   -13.0270 -13.0270 -13.0269 -13.0269 -13.0204 -13.0204 -13.0202 -13.0202
    -8.5686  -8.5686  -8.4722  -8.4722  -8.2396  -8.2396  -8.2217  -8.2217
    -8.1472  -8.1472  -8.0701  -8.0701  -4.4015  -4.4015  -4.1995  -4.1995
    -4.1048  -4.1048  -4.0982  -4.0982  -4.0865  -4.0865  -4.0680  -4.0680
    -4.0439  -4.0439  -3.9999  -3.9999   0.3563   0.3563   0.4159   0.4159
     0.5115   0.5115   1.1018   1.1018   1.2388   1.2388   1.2782   1.2782
     1.6022   1.6022   1.7945   1.7945   1.9047   1.9047   2.0590   2.0590
     2.1140   2.1140   2.1611   2.1611   2.2626   2.2626   2.2886   2.2886
     2.3277   2.3277   2.4140   2.4140   2.5776   2.5776   2.6055   2.6055

          k =-0.5003-0.4681 0.0000 ( 48992 PWs)   bands (ev):

   -17.2521 -17.2521 -17.2515 -17.2515 -13.0860 -13.0860 -13.0767 -13.0767
   -13.0697 -13.0697 -13.0641 -13.0641 -13.0296 -13.0296 -13.0290 -13.0290
   -13.0270 -13.0270 -13.0268 -13.0268 -13.0205 -13.0205 -13.0201 -13.0201
    -8.5844  -8.5844  -8.2995  -8.2995  -8.2960  -8.2960  -8.2743  -8.2743
    -8.2589  -8.2589  -8.0170  -8.0170  -4.4865  -4.4865  -4.1265  -4.1265
    -4.1085  -4.1085  -4.0963  -4.0963  -4.0807  -4.0807  -4.0721  -4.0721
    -4.0676  -4.0676  -3.8775  -3.8775   0.0851   0.0851   0.1723   0.1723
     0.3328   0.3328   1.1670   1.1670   1.2972   1.2972   1.6326   1.6326
     1.6656   1.6656   1.9254   1.9254   1.9648   1.9648   2.0299   2.0299
     2.1277   2.1277   2.1769   2.1769   2.2150   2.2150   2.2353   2.2353
     2.2715   2.2715   2.4338   2.4338   2.6942   2.6942   2.9531   2.9531

          k =-0.5003-0.4681 0.2265 ( 48964 PWs)   bands (ev):

   -17.2519 -17.2519 -17.2517 -17.2517 -13.0830 -13.0830 -13.0783 -13.0783
   -13.0689 -13.0689 -13.0663 -13.0663 -13.0295 -13.0295 -13.0292 -13.0292
   -13.0270 -13.0270 -13.0269 -13.0269 -13.0204 -13.0204 -13.0202 -13.0202
    -8.5458  -8.5458  -8.4392  -8.4392  -8.2739  -8.2739  -8.2734  -8.2734
    -8.1467  -8.1467  -8.0502  -8.0502  -4.3873  -4.3873  -4.1962  -4.1962
    -4.1051  -4.1051  -4.1031  -4.1031  -4.0694  -4.0694  -4.0594  -4.0594
    -4.0585  -4.0585  -3.9747  -3.9747   0.2050   0.2050   0.2656   0.2656
     0.4802   0.4802   1.1885   1.1885   1.2342   1.2342   1.3519   1.3519
     1.6309   1.6309   1.7783   1.7783   2.0387   2.0387   2.0693   2.0693
     2.1371   2.1371   2.1380   2.1380   2.2281   2.2281   2.2348   2.2348
     2.3473   2.3473   2.4329   2.4329   2.6654   2.6654   2.7257   2.7257

     highest occupied level (ev):     3.4280

!    total energy              =   -8165.86061749 Ry
     estimated scf accuracy    <          3.6E-12 Ry

     The total energy is the sum of the following terms:
     one-electron contribution =    -325.03250424 Ry
     hartree contribution      =     251.31736858 Ry
     xc contribution           =    -792.78101286 Ry
     ewald contribution        =    -649.74509150 Ry
     one-center paw contrib.   =   -6649.61937746 Ry

     convergence has been achieved in  12 iterations

     Forces acting on atoms (cartesian axes, Ry/au):

     atom    1 type  1   force =     0.00021997   -0.00009206   -0.00000000
     atom    2 type  1   force =    -0.00021997    0.00009206    0.00000000
     atom    3 type  1   force =     0.00021997    0.00009206    0.00000000
     atom    4 type  1   force =    -0.00021997   -0.00009206   -0.00000000
     atom    5 type  2   force =     0.00000000    0.00000000    0.00000000
     atom    6 type  2   force =     0.00000000    0.00000000    0.00000000
     atom    7 type  2   force =     0.00000000    0.00000000   -0.00000000
     atom    8 type  2   force =     0.00000000   -0.00000000   -0.00000000
     atom    9 type  3   force =    -0.00019484   -0.00014248    0.00000000
     atom   10 type  3   force =     0.00019484    0.00014248    0.00000000
     atom   11 type  3   force =    -0.00019484    0.00014248    0.00000000
     atom   12 type  3   force =     0.00019484   -0.00014248    0.00000000
     atom   13 type  3   force =    -0.00010057   -0.00018202    0.00004427
     atom   14 type  3   force =     0.00010057    0.00018202    0.00004427
     atom   15 type  3   force =    -0.00010057    0.00018202   -0.00004427
     atom   16 type  3   force =     0.00010057   -0.00018202   -0.00004427
     atom   17 type  3   force =     0.00010057    0.00018202   -0.00004427
     atom   18 type  3   force =    -0.00010057   -0.00018202   -0.00004427
     atom   19 type  3   force =     0.00010057   -0.00018202    0.00004427
     atom   20 type  3   force =    -0.00010057    0.00018202    0.00004427

     Total force =     0.000907     Total SCF correction =     0.000014


     Computing stress (Cartesian axis) and pressure

          total   stress  (Ry/bohr**3)                   (kbar)     P=        0.14
  -0.00000060   0.00000000   0.00000000           -0.09        0.00        0.00
   0.00000000   0.00000027   0.00000000            0.00        0.04        0.00
   0.00000000   0.00000000   0.00000321            0.00        0.00        0.47


     number of scf cycles    =   8
     number of bfgs steps    =   7

     enthalpy old            =   -8165.8606054720 Ry
     enthalpy new            =   -8165.8606174872 Ry

     CASE: enthalpy_new < enthalpy_old

     new trust radius        =       0.0018492486 bohr
     new conv_thr            =            1.0E-11 Ry

     new unit-cell volume =   6233.88622 a.u.^3 (   923.76663 Ang^3 )
     density =      5.18289 g/cm^3

CELL_PARAMETERS (angstrom)
   8.372230514   0.000000000   0.000000000
   0.000000000   8.949794049   0.000000000
   0.000000000   0.000000000  12.328437883

ATOMIC_POSITIONS (angstrom)
Cs            3.9115536752        3.7278084152        3.0821094707
Cs            4.4606768386        5.2219856333        9.2463284120
Cs           -0.2745615817        0.7470886090        9.2463284120
Cs            8.6467920954        8.2027054395        3.0821094707
Pb            4.1861152569        0.0000000000        0.0000000000
Pb            4.1861152569       -0.0000000000        6.1642189414
Pb            0.0000000000        4.4748970243        0.0000000000
Pb           -0.0000000000        4.4748970243        6.1642189414
I             4.8950038159        0.0627073300        3.0821094707
I             3.4772266978        8.8870867186        9.2463284120
I             0.7088885590        4.4121896943        9.2463284120
I             7.6633419547        4.5376043542        3.0821094707
I             5.7577667312        2.7324717923       11.8308396154
I             2.6144637825        6.2173222562        5.6666206740
I             1.5716514744        1.7424252320        0.4975982673
I             6.8005790393        7.2073688166        6.6618172087
I             2.6144637825        6.2173222562        0.4975982673
I             5.7577667312        2.7324717923        6.6618172087
I             6.8005790393        7.2073688166       11.8308396154
I             1.5716514744        1.7424252320        5.6666206740



     Writing output data file ./tmp/unit_tight.save/
     NEW-OLD atomic charge density approx. for the potential
     extrapolated charge  176.00697, renormalised to  176.00000

     total cpu time spent up to now is     2771.2 secs

     Self-consistent Calculation

     iteration #  1     ecut=    60.00 Ry     beta= 0.30
     Davidson diagonalization with overlap
     ethr =  1.00E-06,  avg # of iterations =  2.0

     Threshold (ethr) on eigenvalues was too large:
     Diagonalizing with lowered threshold

     Davidson diagonalization with overlap
     ethr =  5.60E-10,  avg # of iterations =  5.1

     total cpu time spent up to now is     2804.0 secs

     total energy              =   -8165.86061944 Ry
     estimated scf accuracy    <       0.00000077 Ry

     iteration #  2     ecut=    60.00 Ry     beta= 0.30
     Davidson diagonalization with overlap
     ethr =  4.39E-10,  avg # of iterations =  5.0

     total cpu time spent up to now is     2824.7 secs

     total energy              =   -8165.86062012 Ry
     estimated scf accuracy    <       0.00000018 Ry

     iteration #  3     ecut=    60.00 Ry     beta= 0.30
     Davidson diagonalization with overlap
     ethr =  1.05E-10,  avg # of iterations =  2.7

     total cpu time spent up to now is     2837.9 secs

     total energy              =   -8165.86062012 Ry
     estimated scf accuracy    <       0.00000009 Ry

     iteration #  4     ecut=    60.00 Ry     beta= 0.30
     Davidson diagonalization with overlap
     ethr =  5.38E-11,  avg # of iterations =  3.1

     total cpu time spent up to now is     2853.6 secs

     total energy              =   -8165.86062016 Ry
     estimated scf accuracy    <          6.3E-09 Ry

     iteration #  5     ecut=    60.00 Ry     beta= 0.30
     Davidson diagonalization with overlap
     ethr =  3.61E-12,  avg # of iterations =  5.1

     total cpu time spent up to now is     2868.9 secs

     total energy              =   -8165.86062017 Ry
     estimated scf accuracy    <          4.2E-09 Ry

     iteration #  6     ecut=    60.00 Ry     beta= 0.30
     Davidson diagonalization with overlap
     ethr =  2.40E-12,  avg # of iterations =  3.2

     total cpu time spent up to now is     2885.2 secs

     total energy              =   -8165.86062017 Ry
     estimated scf accuracy    <          2.5E-09 Ry

     iteration #  7     ecut=    60.00 Ry     beta= 0.30
     Davidson diagonalization with overlap
     ethr =  1.44E-12,  avg # of iterations =  2.0

     total cpu time spent up to now is     2898.3 secs

     total energy              =   -8165.86062018 Ry
     estimated scf accuracy    <          6.6E-10 Ry

     iteration #  8     ecut=    60.00 Ry     beta= 0.30
     Davidson diagonalization with overlap
     ethr =  3.78E-13,  avg # of iterations =  4.3

     total cpu time spent up to now is     2915.2 secs

     total energy              =   -8165.86062018 Ry
     estimated scf accuracy    <          1.4E-10 Ry

     iteration #  9     ecut=    60.00 Ry     beta= 0.30
     Davidson diagonalization with overlap
     ethr =  1.00E-13,  avg # of iterations =  5.4

     total cpu time spent up to now is     2933.4 secs

     total energy              =   -8165.86062018 Ry
     estimated scf accuracy    <          8.0E-11 Ry

     iteration # 10     ecut=    60.00 Ry     beta= 0.30
     Davidson diagonalization with overlap
     ethr =  1.00E-13,  avg # of iterations =  1.1

     total cpu time spent up to now is     2945.7 secs

     total energy              =   -8165.86062018 Ry
     estimated scf accuracy    <          4.0E-11 Ry

     iteration # 11     ecut=    60.00 Ry     beta= 0.30
     Davidson diagonalization with overlap
     ethr =  1.00E-13,  avg # of iterations =  2.0

     total cpu time spent up to now is     2958.4 secs

     End of self-consistent calculation

          k = 0.0000 0.0000 0.0000 ( 49019 PWs)   bands (ev):

   -17.2538 -17.2531 -17.2515 -17.2510 -13.0873 -13.0833 -13.0825 -13.0798
   -13.0727 -13.0655 -13.0621 -13.0620 -13.0300 -13.0298 -13.0294 -13.0292
   -13.0276 -13.0274 -13.0270 -13.0268 -13.0210 -13.0207 -13.0204 -13.0201
    -8.7792  -8.5801  -8.3352  -8.2864  -8.2807  -8.2683  -8.2548  -8.2341
    -8.2177  -8.0470  -8.0451  -8.0325  -4.9757  -4.4523  -4.1254  -4.1208
    -4.1175  -4.1151  -4.1118  -4.1103  -4.1027  -4.0971  -4.0890  -4.0666
    -4.0546  -4.0465  -3.9150  -3.4595  -0.0220   0.0337   0.0599   0.1915
     0.1939   0.2557   1.1114   1.4046   1.4166   1.4290   1.4427   1.4989
     1.7251   1.9208   1.9245   1.9357   2.0186   2.0219   2.0327   2.0646
     2.0699   2.0742   2.1027   2.1061   2.1593   2.3622   2.3835   2.4202
     2.4394   2.4506   2.4736   2.5001   2.6984   2.7016   2.9653   3.4278

          k = 0.0000 0.0000 0.2265 ( 48974 PWs)   bands (ev):

   -17.2536 -17.2532 -17.2514 -17.2511 -13.0836 -13.0828 -13.0826 -13.0765
   -13.0763 -13.0692 -13.0621 -13.0620 -13.0299 -13.0296 -13.0296 -13.0293
   -13.0276 -13.0275 -13.0269 -13.0268 -13.0209 -13.0208 -13.0203 -13.0202
    -8.7439  -8.6516  -8.3197  -8.2874  -8.2733  -8.2614  -8.2326  -8.2223
    -8.2015  -8.0903  -8.0429  -8.0356  -4.8539  -4.5915  -4.1253  -4.1243
    -4.1230  -4.1209  -4.1085  -4.0995  -4.0825  -4.0815  -4.0688  -4.0645
    -4.0636  -4.0563  -3.8568  -3.6194   0.0593   0.0936   0.1019   0.1668
     0.4144   0.6151   1.1110   1.1823   1.2947   1.4623   1.4705   1.5142
     1.5489   1.6667   1.8476   1.9346   1.9458   1.9782   2.0574   2.0676
     2.0821   2.1223   2.1625   2.1655   2.2628   2.2695   2.3229   2.3746
     2.4026   2.4167   2.4533   2.4697   2.6158   2.6775   2.9935   3.1441

          k = 0.0000 0.2340 0.0000 ( 49004 PWs)   bands (ev):

   -17.2534 -17.2528 -17.2518 -17.2513 -13.0863 -13.0823 -13.0796 -13.0787
   -13.0718 -13.0665 -13.0651 -13.0648 -13.0300 -13.0298 -13.0294 -13.0292
   -13.0275 -13.0274 -13.0271 -13.0269 -13.0209 -13.0206 -13.0205 -13.0202
    -8.7410  -8.5388  -8.4774  -8.3103  -8.2836  -8.2725  -8.2089  -8.1910
    -8.1686  -8.0758  -8.0597  -8.0533  -4.8470  -4.3534  -4.2301  -4.1295
    -4.1216  -4.1152  -4.1108  -4.1005  -4.0812  -4.0811  -4.0756  -4.0732
    -4.0655  -4.0278  -3.9931  -3.6261   0.0297   0.1900   0.2202   0.3120
     0.3840   0.4082   1.1770   1.2817   1.2819   1.3595   1.4405   1.4862
     1.5073   1.6049   1.7535   1.8609   1.9810   1.9859   2.0269   2.0505
     2.1178   2.1210   2.1679   2.1686   2.1905   2.2834   2.3392   2.3414
     2.3961   2.4133   2.4608   2.5179   2.7018   2.7278   2.7587   3.1462

          k = 0.0000 0.2340 0.2265 ( 48988 PWs)   bands (ev):

   -17.2533 -17.2529 -17.2517 -17.2515 -13.0826 -13.0803 -13.0797 -13.0770
   -13.0754 -13.0701 -13.0650 -13.0649 -13.0298 -13.0297 -13.0295 -13.0294
   -13.0275 -13.0274 -13.0270 -13.0269 -13.0209 -13.0207 -13.0204 -13.0203
    -8.7057  -8.6129  -8.4507  -8.3808  -8.2183  -8.2091  -8.2023  -8.1913
    -8.1800  -8.0949  -8.0717  -8.0636  -4.7311  -4.4816  -4.1550  -4.1245
    -4.1232  -4.1123  -4.1086  -4.1038  -4.0904  -4.0812  -4.0794  -4.0652
    -4.0609  -4.0482  -3.9694  -3.7737   0.2562   0.2706   0.3335   0.3520
     0.4890   0.5626   1.1357   1.2208   1.2632   1.3135   1.3292   1.4135
     1.5230   1.6083   1.6266   1.8241   1.8304   1.9356   1.9446   2.0264
     2.0408   2.1110   2.1205   2.1432   2.2727   2.3186   2.3622   2.3768
     2.4073   2.4086   2.4387   2.4874   2.6616   2.6990   2.7321   2.8874

          k = 0.0000-0.4680 0.0000 ( 48914 PWs)   bands (ev):

   -17.2526 -17.2526 -17.2520 -17.2520 -13.0840 -13.0840 -13.0728 -13.0728
   -13.0722 -13.0722 -13.0685 -13.0685 -13.0299 -13.0299 -13.0293 -13.0293
   -13.0273 -13.0273 -13.0271 -13.0271 -13.0207 -13.0207 -13.0204 -13.0204
    -8.6329  -8.6329  -8.4315  -8.4315  -8.2786  -8.2786  -8.1438  -8.1438
    -8.1257  -8.1257  -8.0878  -8.0878  -4.5346  -4.5346  -4.1599  -4.1599
    -4.1160  -4.1160  -4.0931  -4.0931  -4.0919  -4.0919  -4.0765  -4.0765
    -4.0557  -4.0557  -3.9205  -3.9205   0.1049   0.1049   0.6494   0.6494
     0.8393   0.8393   0.9136   0.9136   1.0009   1.0009   1.3232   1.3232
     1.6175   1.6175   1.7422   1.7422   1.8528   1.8528   2.0287   2.0287
     2.0993   2.0993   2.1313   2.1313   2.2294   2.2294   2.3496   2.3496
     2.3994   2.3994   2.4578   2.4578   2.6470   2.6470   2.8774   2.8774

          k = 0.0000-0.4680 0.2265 ( 48958 PWs)   bands (ev):

   -17.2525 -17.2525 -17.2522 -17.2522 -13.0804 -13.0804 -13.0740 -13.0740
   -13.0721 -13.0721 -13.0711 -13.0711 -13.0298 -13.0298 -13.0295 -13.0295
   -13.0272 -13.0272 -13.0272 -13.0272 -13.0207 -13.0207 -13.0205 -13.0205
    -8.5993  -8.5993  -8.5097  -8.5097  -8.2034  -8.2034  -8.1408  -8.1408
    -8.1299  -8.1299  -8.1168  -8.1168  -4.4285  -4.4285  -4.2186  -4.2186
    -4.1195  -4.1195  -4.1041  -4.1041  -4.0901  -4.0901  -4.0726  -4.0726
    -4.0539  -4.0539  -3.9982  -3.9982   0.4489   0.4489   0.6919   0.6919
     0.7729   0.7729   0.9319   0.9319   0.9705   0.9705   1.2282   1.2282
     1.6733   1.6733   1.7231   1.7231   1.7992   1.7992   1.8988   1.8988
     1.9485   1.9485   1.9842   1.9842   2.3306   2.3306   2.3945   2.3945
     2.4054   2.4054   2.4784   2.4784   2.6570   2.6570   2.7162   2.7162

          k = 0.2502 0.0000 0.0000 ( 48921 PWs)   bands (ev):

   -17.2535 -17.2529 -17.2516 -17.2512 -13.0863 -13.0823 -13.0796 -13.0787
   -13.0718 -13.0664 -13.0651 -13.0649 -13.0300 -13.0298 -13.0294 -13.0292
   -13.0275 -13.0274 -13.0271 -13.0269 -13.0209 -13.0206 -13.0205 -13.0202
    -8.7375  -8.5341  -8.4609  -8.2844  -8.2796  -8.2745  -8.2464  -8.2230
    -8.1527  -8.0806  -8.0656  -8.0527  -4.8448  -4.3451  -4.2072  -4.1212
    -4.1184  -4.1124  -4.1085  -4.1019  -4.1015  -4.0826  -4.0780  -4.0672
    -4.0591  -4.0344  -3.9887  -3.6291   0.0285   0.1891   0.1940   0.3275
     0.3415   0.4793   1.1432   1.1896   1.3176   1.3846   1.5069   1.5074
     1.5100   1.6113   1.8339   1.8516   1.9902   1.9964   2.0287   2.0389
     2.1255   2.1302   2.1794   2.2107   2.2197   2.2338   2.2489   2.3712
     2.3826   2.4113   2.4566   2.5133   2.6267   2.6866   2.7201   3.0646

          k = 0.2502 0.0000 0.2265 ( 48983 PWs)   bands (ev):

   -17.2534 -17.2531 -17.2516 -17.2514 -13.0826 -13.0804 -13.0797 -13.0770
   -13.0754 -13.0701 -13.0650 -13.0650 -13.0298 -13.0297 -13.0295 -13.0294
   -13.0275 -13.0274 -13.0270 -13.0269 -13.0209 -13.0207 -13.0204 -13.0203
    -8.7022  -8.6091  -8.4340  -8.3636  -8.2419  -8.2311  -8.2054  -8.2009
    -8.1649  -8.0948  -8.0761  -8.0686  -4.7279  -4.4755  -4.1372  -4.1287
    -4.1248  -4.1151  -4.0952  -4.0935  -4.0879  -4.0822  -4.0750  -4.0626
    -4.0589  -4.0560  -3.9753  -3.7811   0.2207   0.2660   0.3229   0.4251
     0.4745   0.5569   1.1118   1.1564   1.2232   1.3462   1.3925   1.3966
     1.5842   1.6239   1.6443   1.7984   1.9296   1.9442   2.0392   2.0438
     2.0704   2.0889   2.1595   2.1974   2.2504   2.2553   2.3157   2.3686
     2.3893   2.4020   2.4274   2.4819   2.5841   2.6072   2.6947   2.7783

          k = 0.2502 0.2340 0.0000 ( 48919 PWs)   bands (ev):

   -17.2532 -17.2527 -17.2519 -17.2515 -13.0865 -13.0830 -13.0787 -13.0762
   -13.0712 -13.0686 -13.0667 -13.0642 -13.0299 -13.0298 -13.0293 -13.0292
   -13.0274 -13.0273 -13.0271 -13.0270 -13.0209 -13.0206 -13.0205 -13.0202
    -8.7032  -8.5039  -8.4942  -8.2840  -8.2816  -8.2769  -8.2606  -8.2479
    -8.1386  -8.0979  -8.0924  -8.0312  -4.7436  -4.2964  -4.2749  -4.1183
    -4.1110  -4.1096  -4.1094  -4.0984  -4.0898  -4.0765  -4.0731  -4.0714
    -4.0678  -4.0197  -4.0053  -3.7184   0.0460   0.1059   0.1583   0.2556
     0.7098   0.8225   0.8634   1.0385   1.2639   1.2721   1.2964   1.5477
     1.5692   1.7088   1.8011   1.9227   1.9605   1.9827   2.0536   2.0647
     2.0793   2.1194   2.1381   2.1459   2.2220   2.2826   2.3264   2.3296
     2.3422   2.3654   2.4476   2.4806   2.6084   2.7160   2.7575   3.0668

          k = 0.2502 0.2340 0.2265 ( 48969 PWs)   bands (ev):

   -17.2531 -17.2528 -17.2518 -17.2516 -13.0834 -13.0797 -13.0794 -13.0755
   -13.0739 -13.0714 -13.0665 -13.0655 -13.0298 -13.0297 -13.0295 -13.0294
   -13.0274 -13.0273 -13.0271 -13.0270 -13.0208 -13.0206 -13.0205 -13.0203
    -8.6676  -8.5729  -8.4719  -8.3859  -8.2639  -8.2592  -8.2069  -8.1723
    -8.1451  -8.1123  -8.0936  -8.0602  -4.6319  -4.3926  -4.2060  -4.1193
    -4.1180  -4.1137  -4.1029  -4.0917  -4.0870  -4.0813  -4.0748  -4.0695
    -4.0608  -4.0403  -4.0106  -3.8591   0.1371   0.2006   0.4088   0.5171
     0.7605   0.7785   0.9001   0.9636   1.1393   1.2505   1.3119   1.3662
     1.5769   1.6821   1.7104   1.8096   1.8694   1.9163   1.9356   1.9716
     2.0759   2.1037   2.1855   2.2162   2.2633   2.3092   2.3243   2.3500
     2.3738   2.3886   2.4392   2.4580   2.5911   2.6199   2.6993   2.8045

          k = 0.2502-0.4680 0.0000 ( 48942 PWs)   bands (ev):

   -17.2526 -17.2526 -17.2520 -17.2520 -13.0853 -13.0853 -13.0754 -13.0754
   -13.0710 -13.0710 -13.0660 -13.0660 -13.0299 -13.0299 -13.0293 -13.0293
   -13.0273 -13.0273 -13.0271 -13.0271 -13.0207 -13.0207 -13.0204 -13.0204
    -8.6113  -8.6113  -8.3910  -8.3910  -8.2828  -8.2828  -8.2164  -8.2164
    -8.1746  -8.1746  -8.0401  -8.0401  -4.5110  -4.5110  -4.1430  -4.1430
    -4.1140  -4.1140  -4.0946  -4.0946  -4.0877  -4.0877  -4.0743  -4.0743
    -4.0607  -4.0607  -3.8988  -3.8988   0.0969   0.0969   0.3439   0.3439
     0.4943   0.4943   1.1656   1.1656   1.2417   1.2417   1.3653   1.3653
     1.6411   1.6411   1.8471   1.8471   1.9583   1.9583   2.0393   2.0393
     2.1220   2.1220   2.2136   2.2136   2.2198   2.2198   2.2770   2.2770
     2.3417   2.3417   2.3952   2.3952   2.6512   2.6512   2.8826   2.8826

          k = 0.2502-0.4680 0.2265 ( 48988 PWs)   bands (ev):

   -17.2525 -17.2525 -17.2522 -17.2522 -13.0821 -13.0821 -13.0769 -13.0769
   -13.0705 -13.0705 -13.0682 -13.0682 -13.0298 -13.0298 -13.0294 -13.0294
   -13.0272 -13.0272 -13.0272 -13.0272 -13.0206 -13.0206 -13.0205 -13.0205
    -8.5757  -8.5757  -8.4803  -8.4803  -8.2327  -8.2327  -8.2179  -8.2179
    -8.1401  -8.1401  -8.0689  -8.0689  -4.4081  -4.4081  -4.2070  -4.2070
    -4.1131  -4.1131  -4.1032  -4.1032  -4.0802  -4.0802  -4.0713  -4.0713
    -4.0512  -4.0512  -3.9874  -3.9874   0.3548   0.3548   0.4258   0.4258
     0.5104   0.5104   1.1640   1.1640   1.2114   1.2114   1.2359   1.2359
     1.5714   1.5714   1.7648   1.7648   1.8951   1.8951   1.9959   1.9959
     2.0876   2.0876   2.1216   2.1216   2.3069   2.3069   2.3388   2.3388
     2.3757   2.3757   2.4194   2.4194   2.6294   2.6294   2.6690   2.6690

          k =-0.5003 0.0000 0.0000 ( 48876 PWs)   bands (ev):

   -17.2530 -17.2530 -17.2517 -17.2517 -13.0840 -13.0840 -13.0729 -13.0729
   -13.0722 -13.0722 -13.0685 -13.0685 -13.0299 -13.0299 -13.0293 -13.0293
   -13.0273 -13.0273 -13.0271 -13.0271 -13.0207 -13.0207 -13.0204 -13.0204
    -8.6215  -8.6215  -8.4146  -8.4146  -8.2814  -8.2814  -8.1679  -8.1679
    -8.1451  -8.1451  -8.0810  -8.0810  -4.5251  -4.5251  -4.1564  -4.1564
    -4.1138  -4.1138  -4.0932  -4.0932  -4.0697  -4.0697  -4.0628  -4.0628
    -4.0470  -4.0470  -3.9489  -3.9489   0.1067   0.1067   0.6005   0.6005
     0.8159   0.8159   0.9260   0.9260   1.1295   1.1295   1.2706   1.2706
     1.6002   1.6002   1.8218   1.8218   1.9245   1.9245   2.0365   2.0365
     2.0652   2.0652   2.2149   2.2149   2.2307   2.2307   2.2863   2.2863
     2.3733   2.3733   2.4522   2.4522   2.5073   2.5073   2.7720   2.7720

          k =-0.5003 0.0000 0.2265 ( 48902 PWs)   bands (ev):

   -17.2529 -17.2529 -17.2517 -17.2517 -13.0804 -13.0804 -13.0740 -13.0740
   -13.0721 -13.0721 -13.0711 -13.0711 -13.0298 -13.0298 -13.0295 -13.0295
   -13.0272 -13.0272 -13.0272 -13.0272 -13.0207 -13.0207 -13.0205 -13.0205
    -8.5878  -8.5878  -8.4971  -8.4971  -8.2028  -8.2028  -8.1689  -8.1689
    -8.1444  -8.1444  -8.1101  -8.1101  -4.4162  -4.4162  -4.2011  -4.2011
    -4.1166  -4.1166  -4.1048  -4.1048  -4.0771  -4.0771  -4.0644  -4.0644
    -4.0439  -4.0439  -4.0297  -4.0297   0.4500   0.4500   0.6447   0.6447
     0.7558   0.7558   0.9439   0.9439   1.0403   1.0403   1.1757   1.1757
     1.6839   1.6839   1.8316   1.8316   1.8519   1.8519   1.9536   1.9536
     1.9680   1.9680   2.0888   2.0888   2.3109   2.3109   2.3361   2.3361
     2.3819   2.3819   2.4349   2.4349   2.5084   2.5084   2.5481   2.5481

          k =-0.5003 0.2340 0.0000 ( 48934 PWs)   bands (ev):

   -17.2528 -17.2528 -17.2518 -17.2518 -13.0853 -13.0853 -13.0754 -13.0754
   -13.0710 -13.0710 -13.0660 -13.0660 -13.0299 -13.0299 -13.0293 -13.0293
   -13.0273 -13.0273 -13.0271 -13.0271 -13.0207 -13.0207 -13.0204 -13.0204
    -8.6047  -8.6047  -8.3789  -8.3789  -8.2847  -8.2847  -8.2247  -8.2247
    -8.1879  -8.1879  -8.0408  -8.0408  -4.5059  -4.5059  -4.1446  -4.1446
    -4.1016  -4.1016  -4.1015  -4.1015  -4.0807  -4.0807  -4.0699  -4.0699
    -4.0538  -4.0538  -3.9102  -3.9102   0.0965   0.0965   0.3329   0.3329
     0.5043   0.5043   1.1232   1.1232   1.2517   1.2517   1.4357   1.4357
     1.6541   1.6541   1.8664   1.8664   1.9886   1.9886   2.0649   2.0649
     2.0870   2.0870   2.1921   2.1921   2.2089   2.2089   2.2648   2.2648
     2.3122   2.3122   2.3987   2.3987   2.6098   2.6098   2.8428   2.8428

          k =-0.5003 0.2340 0.2265 ( 48884 PWs)   bands (ev):

   -17.2527 -17.2527 -17.2519 -17.2519 -13.0820 -13.0820 -13.0769 -13.0769
   -13.0705 -13.0705 -13.0682 -13.0682 -13.0297 -13.0297 -13.0294 -13.0294
   -13.0272 -13.0272 -13.0272 -13.0272 -13.0206 -13.0206 -13.0205 -13.0205
    -8.5690  -8.5690  -8.4725  -8.4725  -8.2399  -8.2399  -8.2218  -8.2218
    -8.1475  -8.1475  -8.0704  -8.0704  -4.4019  -4.4019  -4.1998  -4.1998
    -4.1053  -4.1053  -4.0987  -4.0987  -4.0869  -4.0869  -4.0685  -4.0685
    -4.0444  -4.0444  -4.0003  -4.0003   0.3559   0.3559   0.4153   0.4153
     0.5113   0.5113   1.1016   1.1016   1.2385   1.2385   1.2779   1.2779
     1.6019   1.6019   1.7942   1.7942   1.9043   1.9043   2.0587   2.0587
     2.1137   2.1137   2.1608   2.1608   2.2622   2.2622   2.2883   2.2883
     2.3274   2.3274   2.4137   2.4137   2.5773   2.5773   2.6051   2.6051

          k =-0.5003-0.4680 0.0000 ( 48992 PWs)   bands (ev):

   -17.2526 -17.2526 -17.2520 -17.2520 -13.0863 -13.0863 -13.0770 -13.0770
   -13.0699 -13.0699 -13.0644 -13.0644 -13.0299 -13.0299 -13.0293 -13.0293
   -13.0273 -13.0273 -13.0271 -13.0271 -13.0207 -13.0207 -13.0204 -13.0204
    -8.5849  -8.5849  -8.2996  -8.2996  -8.2965  -8.2965  -8.2743  -8.2743
    -8.2592  -8.2592  -8.0174  -8.0174  -4.4870  -4.4870  -4.1268  -4.1268
    -4.1089  -4.1089  -4.0968  -4.0968  -4.0812  -4.0812  -4.0726  -4.0726
    -4.0681  -4.0681  -3.8777  -3.8777   0.0840   0.0840   0.1720   0.1720
     0.3328   0.3328   1.1665   1.1665   1.2969   1.2969   1.6325   1.6325
     1.6654   1.6654   1.9253   1.9253   1.9640   1.9640   2.0299   2.0299
     2.1275   2.1275   2.1766   2.1766   2.2146   2.2146   2.2351   2.2351
     2.2710   2.2710   2.4336   2.4336   2.6939   2.6939   2.9532   2.9532

          k =-0.5003-0.4680 0.2265 ( 48964 PWs)   bands (ev):

   -17.2524 -17.2524 -17.2522 -17.2522 -13.0833 -13.0833 -13.0785 -13.0785
   -13.0692 -13.0692 -13.0666 -13.0666 -13.0297 -13.0297 -13.0294 -13.0294
   -13.0272 -13.0272 -13.0272 -13.0272 -13.0206 -13.0206 -13.0205 -13.0205
    -8.5464  -8.5464  -8.4397  -8.4397  -8.2739  -8.2739  -8.2734  -8.2734
    -8.1471  -8.1471  -8.0506  -8.0506  -4.3878  -4.3878  -4.1965  -4.1965
    -4.1056  -4.1056  -4.1035  -4.1035  -4.0699  -4.0699  -4.0599  -4.0599
    -4.0589  -4.0589  -3.9751  -3.9751   0.2048   0.2048   0.2653   0.2653
     0.4797   0.4797   1.1883   1.1883   1.2338   1.2338   1.3517   1.3517
     1.6307   1.6307   1.7779   1.7779   2.0381   2.0381   2.0691   2.0691
     2.1368   2.1368   2.1377   2.1377   2.2279   2.2279   2.2346   2.2346
     2.3470   2.3470   2.4326   2.4326   2.6651   2.6651   2.7254   2.7254

     highest occupied level (ev):     3.4278

!    total energy              =   -8165.86062018 Ry
     estimated scf accuracy    <          4.0E-12 Ry

     The total energy is the sum of the following terms:
     one-electron contribution =    -325.06929540 Ry
     hartree contribution      =     251.33362680 Ry
     xc contribution           =    -792.78095868 Ry
     ewald contribution        =    -649.72460733 Ry
     one-center paw contrib.   =   -6649.61938557 Ry

     convergence has been achieved in  11 iterations

     Forces acting on atoms (cartesian axes, Ry/au):

     atom    1 type  1   force =     0.00021413   -0.00008132   -0.00000000
     atom    2 type  1   force =    -0.00021413    0.00008132    0.00000000
     atom    3 type  1   force =     0.00021413    0.00008132    0.00000000
     atom    4 type  1   force =    -0.00021413   -0.00008132    0.00000000
     atom    5 type  2   force =    -0.00000000    0.00000000   -0.00000000
     atom    6 type  2   force =     0.00000000    0.00000000    0.00000000
     atom    7 type  2   force =     0.00000000   -0.00000000    0.00000000
     atom    8 type  2   force =     0.00000000    0.00000000    0.00000000
     atom    9 type  3   force =    -0.00016835   -0.00013910    0.00000000
     atom   10 type  3   force =     0.00016835    0.00013910    0.00000000
     atom   11 type  3   force =    -0.00016835    0.00013910    0.00000000
     atom   12 type  3   force =     0.00016835   -0.00013910    0.00000000
     atom   13 type  3   force =    -0.00010190   -0.00017677    0.00004616
     atom   14 type  3   force =     0.00010190    0.00017677    0.00004616
     atom   15 type  3   force =    -0.00010190    0.00017677   -0.00004616
     atom   16 type  3   force =     0.00010190   -0.00017677   -0.00004616
     atom   17 type  3   force =     0.00010190    0.00017677   -0.00004616
     atom   18 type  3   force =    -0.00010190   -0.00017677   -0.00004616
     atom   19 type  3   force =     0.00010190   -0.00017677    0.00004616
     atom   20 type  3   force =    -0.00010190    0.00017677    0.00004616

     Total force =     0.000866     Total SCF correction =     0.000004


     Computing stress (Cartesian axis) and pressure

          total   stress  (Ry/bohr**3)                   (kbar)     P=        0.14
  -0.00000064   0.00000000   0.00000000           -0.09        0.00        0.00
   0.00000000   0.00000012   0.00000000            0.00        0.02        0.00
   0.00000000   0.00000000   0.00000336            0.00        0.00        0.49


     number of scf cycles    =   9
     number of bfgs steps    =   8

     enthalpy old            =   -8165.8606174872 Ry
     enthalpy new            =   -8165.8606201780 Ry

     CASE: enthalpy_new < enthalpy_old


     WARNING: bfgs curvature condition failed, Theta= 0.914
     new trust radius        =       0.0027736031 bohr
     new conv_thr            =            1.0E-11 Ry

     new unit-cell volume =   6234.62456 a.u.^3 (   923.87604 Ang^3 )
     density =      5.18227 g/cm^3

CELL_PARAMETERS (angstrom)
   8.371449220   0.000000000   0.000000000
   0.000000000   8.951318978   0.000000000
   0.000000000   0.000000000  12.328948092

ATOMIC_POSITIONS (angstrom)
Cs            3.9118731594        3.7280077979        3.0822370231
Cs            4.4595760605        5.2233111796        9.2467110693
Cs           -0.2738514506        0.7476516908        9.2467110693
Cs            8.6453006704        8.2036672867        3.0822370231
Pb            4.1857246099        0.0000000000       -0.0000000000
Pb            4.1857246099       -0.0000000000        6.1644740462
Pb            0.0000000000        4.4756594888        0.0000000000
Pb           -0.0000000000        4.4756594888        6.1644740462
I             4.8931652212        0.0622234489        3.0822370231
I             3.4782839986        8.8890955286        9.2467110693
I             0.7074406113        4.4134360398        9.2467110693
I             7.6640086085        4.5378829377        3.0822370231
I             5.7571885790        2.7326488511       11.8313615217
I             2.6142606408        6.2186701265        5.6668874755
I             1.5714639691        1.7430106377        0.4975865707
I             6.7999852507        7.2083083399        6.6620606169
I             2.6142606408        6.2186701265        0.4975865707
I             5.7571885790        2.7326488511        6.6620606169
I             6.7999852507        7.2083083399       11.8313615217
I             1.5714639691        1.7430106377        5.6668874755



     Writing output data file ./tmp/unit_tight.save/
     NEW-OLD atomic charge density approx. for the potential
     extrapolated charge  176.02082, renormalised to  176.00000

     total cpu time spent up to now is     3047.9 secs

     Self-consistent Calculation

     iteration #  1     ecut=    60.00 Ry     beta= 0.30
     Davidson diagonalization with overlap
     ethr =  1.00E-06,  avg # of iterations =  2.0

     Threshold (ethr) on eigenvalues was too large:
     Diagonalizing with lowered threshold

     Davidson diagonalization with overlap
     ethr =  2.80E-09,  avg # of iterations =  6.0

     total cpu time spent up to now is     3080.2 secs

     total energy              =   -8165.86061930 Ry
     estimated scf accuracy    <       0.00000786 Ry

     iteration #  2     ecut=    60.00 Ry     beta= 0.30
     Davidson diagonalization with overlap
     ethr =  4.47E-09,  avg # of iterations =  5.0

     total cpu time spent up to now is     3100.5 secs

     total energy              =   -8165.86062555 Ry
     estimated scf accuracy    <       0.00000203 Ry

     iteration #  3     ecut=    60.00 Ry     beta= 0.30
     Davidson diagonalization with overlap
     ethr =  1.15E-09,  avg # of iterations =  1.1

     total cpu time spent up to now is     3112.6 secs

     total energy              =   -8165.86062538 Ry
     estimated scf accuracy    <       0.00000105 Ry

     iteration #  4     ecut=    60.00 Ry     beta= 0.30
     Davidson diagonalization with overlap
     ethr =  5.98E-10,  avg # of iterations =  2.7

     total cpu time spent up to now is     3127.5 secs

     total energy              =   -8165.86062560 Ry
     estimated scf accuracy    <       0.00000004 Ry

     iteration #  5     ecut=    60.00 Ry     beta= 0.30
     Davidson diagonalization with overlap
     ethr =  2.47E-11,  avg # of iterations =  5.2

     total cpu time spent up to now is     3147.2 secs

     total energy              =   -8165.86062565 Ry
     estimated scf accuracy    <       0.00000002 Ry

     iteration #  6     ecut=    60.00 Ry     beta= 0.30
     Davidson diagonalization with overlap
     ethr =  9.42E-12,  avg # of iterations =  2.2

     total cpu time spent up to now is     3160.1 secs

     total energy              =   -8165.86062567 Ry
     estimated scf accuracy    <          8.6E-09 Ry

     iteration #  7     ecut=    60.00 Ry     beta= 0.30
     Davidson diagonalization with overlap
     ethr =  4.88E-12,  avg # of iterations =  5.1

     total cpu time spent up to now is     3178.3 secs

     total energy              =   -8165.86062568 Ry
     estimated scf accuracy    <       0.00000001 Ry

     iteration #  8     ecut=    60.00 Ry     beta= 0.30
     Davidson diagonalization with overlap
     ethr =  4.88E-12,  avg # of iterations =  2.0

     total cpu time spent up to now is     3191.1 secs

     total energy              =   -8165.86062568 Ry
     estimated scf accuracy    <       0.00000001 Ry

     iteration #  9     ecut=    60.00 Ry     beta= 0.30
     Davidson diagonalization with overlap
     ethr =  4.88E-12,  avg # of iterations =  2.4

     total cpu time spent up to now is     3205.3 secs

     total energy              =   -8165.86062568 Ry
     estimated scf accuracy    <          1.0E-09 Ry

     iteration # 10     ecut=    60.00 Ry     beta= 0.30
     Davidson diagonalization with overlap
     ethr =  5.81E-13,  avg # of iterations =  4.1

     total cpu time spent up to now is     3220.3 secs

     total energy              =   -8165.86062568 Ry
     estimated scf accuracy    <          2.2E-10 Ry

     iteration # 11     ecut=    60.00 Ry     beta= 0.30
     Davidson diagonalization with overlap
     ethr =  1.26E-13,  avg # of iterations =  1.8

     total cpu time spent up to now is     3232.9 secs

     total energy              =   -8165.86062568 Ry
     estimated scf accuracy    <          2.0E-10 Ry

     iteration # 12     ecut=    60.00 Ry     beta= 0.30
     Davidson diagonalization with overlap
     ethr =  1.12E-13,  avg # of iterations =  5.1

     total cpu time spent up to now is     3250.9 secs

     total energy              =   -8165.86062568 Ry
     estimated scf accuracy    <          6.1E-10 Ry

     iteration # 13     ecut=    60.00 Ry     beta= 0.30
     Davidson diagonalization with overlap
     ethr =  1.12E-13,  avg # of iterations =  2.2

     total cpu time spent up to now is     3264.9 secs

     total energy              =   -8165.86062568 Ry
     estimated scf accuracy    <          1.5E-10 Ry

     iteration # 14     ecut=    60.00 Ry     beta= 0.30
     Davidson diagonalization with overlap
     ethr =  1.00E-13,  avg # of iterations =  4.0

     total cpu time spent up to now is     3280.0 secs

     End of self-consistent calculation

          k = 0.0000 0.0000 0.0000 ( 49019 PWs)   bands (ev):

   -17.2552 -17.2545 -17.2529 -17.2524 -13.0883 -13.0842 -13.0835 -13.0808
   -13.0737 -13.0665 -13.0630 -13.0629 -13.0310 -13.0308 -13.0304 -13.0302
   -13.0286 -13.0284 -13.0279 -13.0278 -13.0220 -13.0216 -13.0214 -13.0211
    -8.7801  -8.5806  -8.3367  -8.2876  -8.2815  -8.2696  -8.2555  -8.2347
    -8.2181  -8.0476  -8.0460  -8.0331  -4.9768  -4.4528  -4.1266  -4.1221
    -4.1188  -4.1164  -4.1131  -4.1114  -4.1040  -4.0983  -4.0903  -4.0679
    -4.0560  -4.0478  -3.9165  -3.4605  -0.0234   0.0326   0.0595   0.1904
     0.1940   0.2534   1.1110   1.4040   1.4158   1.4279   1.4417   1.4987
     1.7240   1.9206   1.9228   1.9350   2.0181   2.0204   2.0321   2.0637
     2.0687   2.0728   2.1016   2.1052   2.1584   2.3619   2.3826   2.4191
     2.4379   2.4503   2.4734   2.4995   2.6979   2.7008   2.9643   3.4269

          k = 0.0000 0.0000 0.2265 ( 48974 PWs)   bands (ev):

   -17.2550 -17.2546 -17.2528 -17.2526 -13.0847 -13.0837 -13.0835 -13.0775
   -13.0774 -13.0702 -13.0630 -13.0630 -13.0309 -13.0306 -13.0306 -13.0303
   -13.0286 -13.0285 -13.0279 -13.0278 -13.0219 -13.0217 -13.0213 -13.0211
    -8.7448  -8.6523  -8.3212  -8.2888  -8.2740  -8.2621  -8.2329  -8.2227
    -8.2028  -8.0913  -8.0435  -8.0362  -4.8548  -4.5922  -4.1266  -4.1255
    -4.1242  -4.1221  -4.1097  -4.1008  -4.0838  -4.0828  -4.0700  -4.0658
    -4.0649  -4.0576  -3.8583  -3.6205   0.0583   0.0932   0.1009   0.1666
     0.4132   0.6135   1.1105   1.1818   1.2942   1.4613   1.4695   1.5130
     1.5485   1.6657   1.8467   1.9340   1.9443   1.9771   2.0563   2.0666
     2.0807   2.1211   2.1616   2.1643   2.2622   2.2684   2.3220   2.3742
     2.4012   2.4162   2.4530   2.4690   2.6153   2.6767   2.9923   3.1428

          k = 0.0000 0.2340 0.0000 ( 49004 PWs)   bands (ev):

   -17.2548 -17.2542 -17.2532 -17.2527 -13.0874 -13.0834 -13.0805 -13.0797
   -13.0728 -13.0675 -13.0660 -13.0658 -13.0310 -13.0308 -13.0304 -13.0302
   -13.0285 -13.0284 -13.0280 -13.0279 -13.0219 -13.0216 -13.0215 -13.0212
    -8.7419  -8.5393  -8.4785  -8.3110  -8.2850  -8.2740  -8.2094  -8.1914
    -8.1696  -8.0763  -8.0603  -8.0543  -4.8481  -4.3540  -4.2312  -4.1307
    -4.1228  -4.1164  -4.1120  -4.1018  -4.0825  -4.0824  -4.0769  -4.0745
    -4.0668  -4.0291  -3.9946  -3.6269   0.0281   0.1885   0.2198   0.3109
     0.3833   0.4073   1.1764   1.2806   1.2810   1.3588   1.4398   1.4851
     1.5064   1.6041   1.7528   1.8593   1.9803   1.9856   2.0266   2.0498
     2.1168   2.1202   2.1667   2.1671   2.1894   2.2821   2.3389   2.3403
     2.3952   2.4128   2.4603   2.5172   2.7010   2.7269   2.7582   3.1455

          k = 0.0000 0.2340 0.2265 ( 48988 PWs)   bands (ev):

   -17.2547 -17.2543 -17.2531 -17.2529 -13.0837 -13.0813 -13.0806 -13.0780
   -13.0764 -13.0712 -13.0660 -13.0659 -13.0308 -13.0307 -13.0305 -13.0304
   -13.0285 -13.0284 -13.0280 -13.0279 -13.0218 -13.0217 -13.0214 -13.0212
    -8.7066  -8.6136  -8.4518  -8.3818  -8.2195  -8.2097  -8.2030  -8.1920
    -8.1811  -8.0959  -8.0723  -8.0641  -4.7321  -4.4824  -4.1560  -4.1258
    -4.1244  -4.1136  -4.1098  -4.1051  -4.0916  -4.0825  -4.0807  -4.0665
    -4.0622  -4.0495  -3.9709  -3.7748   0.2557   0.2695   0.3332   0.3511
     0.4879   0.5610   1.1350   1.2201   1.2626   1.3126   1.3282   1.4125
     1.5222   1.6075   1.6255   1.8227   1.8298   1.9341   1.9439   2.0253
     2.0400   2.1102   2.1196   2.1422   2.2720   2.3175   2.3617   2.3757
     2.4068   2.4076   2.4379   2.4866   2.6610   2.6982   2.7312   2.8863

          k = 0.0000-0.4680 0.0000 ( 48914 PWs)   bands (ev):

   -17.2540 -17.2540 -17.2534 -17.2534 -13.0851 -13.0851 -13.0738 -13.0738
   -13.0731 -13.0731 -13.0695 -13.0695 -13.0309 -13.0309 -13.0303 -13.0303
   -13.0283 -13.0283 -13.0281 -13.0281 -13.0217 -13.0217 -13.0214 -13.0214
    -8.6339  -8.6339  -8.4321  -8.4321  -8.2800  -8.2800  -8.1443  -8.1443
    -8.1262  -8.1262  -8.0888  -8.0888  -4.5357  -4.5357  -4.1610  -4.1610
    -4.1172  -4.1172  -4.0944  -4.0944  -4.0932  -4.0932  -4.0778  -4.0778
    -4.0570  -4.0570  -3.9216  -3.9216   0.1033   0.1033   0.6488   0.6488
     0.8387   0.8387   0.9125   0.9125   1.0001   1.0001   1.3222   1.3222
     1.6164   1.6164   1.7414   1.7414   1.8519   1.8519   2.0282   2.0282
     2.0987   2.0987   2.1304   2.1304   2.2284   2.2284   2.3491   2.3491
     2.3985   2.3985   2.4569   2.4569   2.6463   2.6463   2.8770   2.8770

          k = 0.0000-0.4680 0.2265 ( 48958 PWs)   bands (ev):

   -17.2539 -17.2539 -17.2536 -17.2536 -13.0815 -13.0815 -13.0750 -13.0750
   -13.0730 -13.0730 -13.0721 -13.0721 -13.0307 -13.0307 -13.0304 -13.0304
   -13.0282 -13.0282 -13.0282 -13.0282 -13.0216 -13.0216 -13.0215 -13.0215
    -8.6002  -8.6002  -8.5106  -8.5106  -8.2046  -8.2046  -8.1414  -8.1414
    -8.1304  -8.1304  -8.1178  -8.1178  -4.4295  -4.4295  -4.2195  -4.2195
    -4.1207  -4.1207  -4.1054  -4.1054  -4.0914  -4.0914  -4.0739  -4.0739
    -4.0552  -4.0552  -3.9995  -3.9995   0.4476   0.4476   0.6911   0.6911
     0.7723   0.7723   0.9311   0.9311   0.9694   0.9694   1.2273   1.2273
     1.6724   1.6724   1.7220   1.7220   1.7982   1.7982   1.8980   1.8980
     1.9480   1.9480   1.9831   1.9831   2.3300   2.3300   2.3935   2.3935
     2.4048   2.4048   2.4773   2.4773   2.6563   2.6563   2.7155   2.7155

          k = 0.2502 0.0000 0.0000 ( 48921 PWs)   bands (ev):

   -17.2549 -17.2543 -17.2530 -17.2526 -13.0873 -13.0834 -13.0806 -13.0797
   -13.0728 -13.0675 -13.0660 -13.0658 -13.0310 -13.0308 -13.0304 -13.0302
   -13.0285 -13.0284 -13.0280 -13.0279 -13.0219 -13.0216 -13.0215 -13.0212
    -8.7384  -8.5346  -8.4620  -8.2858  -8.2801  -8.2760  -8.2471  -8.2237
    -8.1535  -8.0812  -8.0662  -8.0537  -4.8459  -4.3457  -4.2083  -4.1225
    -4.1196  -4.1137  -4.1098  -4.1032  -4.1026  -4.0839  -4.0793  -4.0685
    -4.0605  -4.0357  -3.9902  -3.6300   0.0269   0.1881   0.1923   0.3270
     0.3406   0.4788   1.1426   1.1890   1.3169   1.3837   1.5058   1.5066
     1.5094   1.6102   1.8331   1.8506   1.9895   1.9957   2.0283   2.0380
     2.1248   2.1291   2.1783   2.2094   2.2185   2.2334   2.2485   2.3704
     2.3815   2.4101   2.4556   2.5127   2.6257   2.6856   2.7194   3.0638

          k = 0.2502 0.0000 0.2265 ( 48983 PWs)   bands (ev):

   -17.2547 -17.2545 -17.2530 -17.2528 -13.0837 -13.0813 -13.0806 -13.0780
   -13.0764 -13.0712 -13.0660 -13.0659 -13.0308 -13.0307 -13.0305 -13.0304
   -13.0285 -13.0284 -13.0280 -13.0279 -13.0218 -13.0217 -13.0214 -13.0212
    -8.7031  -8.6098  -8.4350  -8.3646  -8.2426  -8.2318  -8.2063  -8.2021
    -8.1657  -8.0958  -8.0768  -8.0692  -4.7289  -4.4763  -4.1383  -4.1299
    -4.1260  -4.1163  -4.0964  -4.0948  -4.0892  -4.0835  -4.0763  -4.0640
    -4.0602  -4.0573  -3.9767  -3.7821   0.2197   0.2651   0.3222   0.4248
     0.4736   0.5553   1.1112   1.1558   1.2226   1.3455   1.3918   1.3958
     1.5833   1.6229   1.6432   1.7971   1.9291   1.9431   2.0380   2.0432
     2.0698   2.0875   2.1589   2.1966   2.2493   2.2544   2.3146   2.3679
     2.3885   2.4008   2.4265   2.4814   2.5834   2.6062   2.6936   2.7770

          k = 0.2502 0.2340 0.0000 ( 48919 PWs)   bands (ev):

   -17.2546 -17.2541 -17.2533 -17.2529 -13.0876 -13.0841 -13.0796 -13.0772
   -13.0722 -13.0697 -13.0676 -13.0652 -13.0309 -13.0308 -13.0303 -13.0302
   -13.0284 -13.0283 -13.0281 -13.0280 -13.0219 -13.0216 -13.0215 -13.0212
    -8.7042  -8.5050  -8.4947  -8.2854  -8.2829  -8.2776  -8.2613  -8.2484
    -8.1392  -8.0985  -8.0933  -8.0321  -4.7447  -4.2975  -4.2756  -4.1195
    -4.1122  -4.1108  -4.1107  -4.0997  -4.0911  -4.0778  -4.0744  -4.0727
    -4.0691  -4.0211  -4.0066  -3.7193   0.0444   0.1051   0.1564   0.2552
     0.7090   0.8217   0.8626   1.0379   1.2632   1.2712   1.2954   1.5467
     1.5685   1.7079   1.8002   1.9219   1.9595   1.9821   2.0529   2.0635
     2.0789   2.1187   2.1371   2.1450   2.2210   2.2819   2.3256   2.3286
     2.3414   2.3645   2.4466   2.4801   2.6074   2.7150   2.7569   3.0661

          k = 0.2502 0.2340 0.2265 ( 48969 PWs)   bands (ev):

   -17.2545 -17.2542 -17.2532 -17.2530 -13.0844 -13.0807 -13.0803 -13.0764
   -13.0749 -13.0724 -13.0674 -13.0665 -13.0308 -13.0307 -13.0305 -13.0304
   -13.0284 -13.0283 -13.0281 -13.0280 -13.0218 -13.0216 -13.0215 -13.0213
    -8.6685  -8.5737  -8.4730  -8.3869  -8.2644  -8.2598  -8.2080  -8.1733
    -8.1458  -8.1132  -8.0943  -8.0611  -4.6329  -4.3933  -4.2071  -4.1206
    -4.1192  -4.1149  -4.1042  -4.0930  -4.0883  -4.0827  -4.0761  -4.0708
    -4.0621  -4.0416  -4.0120  -3.8601   0.1364   0.1999   0.4075   0.5160
     0.7597   0.7775   0.8993   0.9629   1.1386   1.2497   1.3110   1.3655
     1.5759   1.6811   1.7096   1.8085   1.8684   1.9157   1.9345   1.9707
     2.0749   2.1026   2.1846   2.2153   2.2625   2.3085   2.3235   2.3489
     2.3728   2.3878   2.4384   2.4573   2.5902   2.6190   2.6983   2.8034

          k = 0.2502-0.4680 0.0000 ( 48942 PWs)   bands (ev):

   -17.2540 -17.2540 -17.2534 -17.2534 -13.0863 -13.0863 -13.0763 -13.0763
   -13.0719 -13.0719 -13.0670 -13.0670 -13.0309 -13.0309 -13.0303 -13.0303
   -13.0283 -13.0283 -13.0281 -13.0281 -13.0217 -13.0217 -13.0214 -13.0214
    -8.6123  -8.6123  -8.3916  -8.3916  -8.2842  -8.2842  -8.2170  -8.2170
    -8.1751  -8.1751  -8.0410  -8.0410  -4.5121  -4.5121  -4.1440  -4.1440
    -4.1152  -4.1152  -4.0959  -4.0959  -4.0890  -4.0890  -4.0757  -4.0757
    -4.0620  -4.0620  -3.8998  -3.8998   0.0952   0.0952   0.3431   0.3431
     0.4938   0.4938   1.1647   1.1647   1.2407   1.2407   1.3645   1.3645
     1.6401   1.6401   1.8464   1.8464   1.9576   1.9576   2.0383   2.0383
     2.1210   2.1210   2.2128   2.2128   2.2189   2.2189   2.2765   2.2765
     2.3407   2.3407   2.3946   2.3946   2.6502   2.6502   2.8820   2.8820

          k = 0.2502-0.4680 0.2265 ( 48988 PWs)   bands (ev):

   -17.2539 -17.2539 -17.2536 -17.2536 -13.0831 -13.0831 -13.0779 -13.0779
   -13.0714 -13.0714 -13.0692 -13.0692 -13.0307 -13.0307 -13.0304 -13.0304
   -13.0282 -13.0282 -13.0282 -13.0282 -13.0216 -13.0216 -13.0215 -13.0215
    -8.5767  -8.5767  -8.4812  -8.4812  -8.2336  -8.2336  -8.2185  -8.2185
    -8.1408  -8.1408  -8.0698  -8.0698  -4.4092  -4.4092  -4.2079  -4.2079
    -4.1143  -4.1143  -4.1045  -4.1045  -4.0815  -4.0815  -4.0726  -4.0726
    -4.0525  -4.0525  -3.9887  -3.9887   0.3538   0.3538   0.4246   0.4246
     0.5098   0.5098   1.1633   1.1633   1.2107   1.2107   1.2350   1.2350
     1.5703   1.5703   1.7639   1.7639   1.8938   1.8938   1.9950   1.9950
     2.0869   2.0869   2.1208   2.1208   2.3064   2.3064   2.3377   2.3377
     2.3752   2.3752   2.4183   2.4183   2.6284   2.6284   2.6680   2.6680

          k =-0.5004 0.0000 0.0000 ( 48876 PWs)   bands (ev):

   -17.2544 -17.2544 -17.2531 -17.2531 -13.0851 -13.0851 -13.0738 -13.0738
   -13.0731 -13.0731 -13.0695 -13.0695 -13.0309 -13.0309 -13.0303 -13.0303
   -13.0283 -13.0283 -13.0281 -13.0281 -13.0217 -13.0217 -13.0214 -13.0214
    -8.6225  -8.6225  -8.4151  -8.4151  -8.2828  -8.2828  -8.1685  -8.1685
    -8.1458  -8.1458  -8.0819  -8.0819  -4.5262  -4.5262  -4.1574  -4.1574
    -4.1150  -4.1150  -4.0945  -4.0945  -4.0710  -4.0710  -4.0641  -4.0641
    -4.0483  -4.0483  -3.9498  -3.9498   0.1050   0.1050   0.5996   0.5996
     0.8152   0.8152   0.9251   0.9251   1.1289   1.1289   1.2697   1.2697
     1.5994   1.5994   1.8211   1.8211   1.9239   1.9239   2.0362   2.0362
     2.0645   2.0645   2.2137   2.2137   2.2302   2.2302   2.2852   2.2852
     2.3722   2.3722   2.4512   2.4512   2.5061   2.5061   2.7712   2.7712

          k =-0.5004 0.0000 0.2265 ( 48902 PWs)   bands (ev):

   -17.2543 -17.2543 -17.2531 -17.2531 -13.0815 -13.0815 -13.0750 -13.0750
   -13.0730 -13.0730 -13.0721 -13.0721 -13.0307 -13.0307 -13.0304 -13.0304
   -13.0282 -13.0282 -13.0282 -13.0282 -13.0216 -13.0216 -13.0215 -13.0215
    -8.5887  -8.5887  -8.4979  -8.4979  -8.2039  -8.2039  -8.1695  -8.1695
    -8.1451  -8.1451  -8.1111  -8.1111  -4.4172  -4.4172  -4.2020  -4.2020
    -4.1177  -4.1177  -4.1061  -4.1061  -4.0784  -4.0784  -4.0657  -4.0657
    -4.0453  -4.0453  -4.0309  -4.0309   0.4487   0.4487   0.6438   0.6438
     0.7551   0.7551   0.9430   0.9430   1.0397   1.0397   1.1750   1.1750
     1.6830   1.6830   1.8308   1.8308   1.8509   1.8509   1.9531   1.9531
     1.9677   1.9677   2.0874   2.0874   2.3098   2.3098   2.3350   2.3350
     2.3810   2.3810   2.4340   2.4340   2.5072   2.5072   2.5470   2.5470

          k =-0.5004 0.2340 0.0000 ( 48934 PWs)   bands (ev):

   -17.2542 -17.2542 -17.2532 -17.2532 -13.0863 -13.0863 -13.0763 -13.0763
   -13.0719 -13.0719 -13.0670 -13.0670 -13.0309 -13.0309 -13.0303 -13.0303
   -13.0283 -13.0283 -13.0281 -13.0281 -13.0217 -13.0217 -13.0214 -13.0214
    -8.6057  -8.6057  -8.3794  -8.3794  -8.2861  -8.2861  -8.2254  -8.2254
    -8.1885  -8.1885  -8.0417  -8.0417  -4.5070  -4.5070  -4.1457  -4.1457
    -4.1029  -4.1029  -4.1028  -4.1028  -4.0819  -4.0819  -4.0712  -4.0712
    -4.0551  -4.0551  -3.9111  -3.9111   0.0948   0.0948   0.3321   0.3321
     0.5038   0.5038   1.1225   1.1225   1.2508   1.2508   1.4351   1.4351
     1.6532   1.6532   1.8656   1.8656   1.9878   1.9878   2.0643   2.0643
     2.0863   2.0863   2.1910   2.1910   2.2081   2.2081   2.2639   2.2639
     2.3112   2.3112   2.3977   2.3977   2.6088   2.6088   2.8421   2.8421

          k =-0.5004 0.2340 0.2265 ( 48884 PWs)   bands (ev):

   -17.2541 -17.2541 -17.2533 -17.2533 -13.0831 -13.0831 -13.0779 -13.0779
   -13.0714 -13.0714 -13.0692 -13.0692 -13.0307 -13.0307 -13.0304 -13.0304
   -13.0282 -13.0282 -13.0282 -13.0282 -13.0216 -13.0216 -13.0215 -13.0215
    -8.5699  -8.5699  -8.4734  -8.4734  -8.2406  -8.2406  -8.2224  -8.2224
    -8.1484  -8.1484  -8.0714  -8.0714  -4.4029  -4.4029  -4.2007  -4.2007
    -4.1066  -4.1066  -4.0999  -4.0999  -4.0882  -4.0882  -4.0698  -4.0698
    -4.0457  -4.0457  -4.0016  -4.0016   0.3550   0.3550   0.4141   0.4141
     0.5107   0.5107   1.1009   1.1009   1.2377   1.2377   1.2772   1.2772
     1.6010   1.6010   1.7934   1.7934   1.9032   1.9032   2.0578   2.0578
     2.1130   2.1130   2.1599   2.1599   2.2610   2.2610   2.2873   2.2873
     2.3265   2.3265   2.4129   2.4129   2.5763   2.5763   2.6041   2.6041

          k =-0.5004-0.4680 0.0000 ( 48992 PWs)   bands (ev):

   -17.2540 -17.2540 -17.2534 -17.2534 -13.0873 -13.0873 -13.0779 -13.0779
   -13.0709 -13.0709 -13.0654 -13.0654 -13.0309 -13.0309 -13.0303 -13.0303
   -13.0283 -13.0283 -13.0281 -13.0281 -13.0217 -13.0217 -13.0214 -13.0214
    -8.5860  -8.5860  -8.3002  -8.3002  -8.2977  -8.2977  -8.2748  -8.2748
    -8.2600  -8.2600  -8.0183  -8.0183  -4.4881  -4.4881  -4.1278  -4.1278
    -4.1102  -4.1102  -4.0981  -4.0981  -4.0825  -4.0825  -4.0739  -4.0739
    -4.0694  -4.0694  -3.8787  -3.8787   0.0822   0.0822   0.1712   0.1712
     0.3324   0.3324   1.1655   1.1655   1.2962   1.2962   1.6318   1.6318
     1.6646   1.6646   1.9246   1.9246   1.9626   1.9626   2.0296   2.0296
     2.1268   2.1268   2.1757   2.1757   2.2137   2.2137   2.2343   2.2343
     2.2699   2.2699   2.4328   2.4328   2.6930   2.6930   2.9526   2.9526

          k =-0.5004-0.4680 0.2265 ( 48964 PWs)   bands (ev):

   -17.2538 -17.2538 -17.2536 -17.2536 -13.0843 -13.0843 -13.0795 -13.0795
   -13.0702 -13.0702 -13.0675 -13.0675 -13.0307 -13.0307 -13.0304 -13.0304
   -13.0282 -13.0282 -13.0282 -13.0282 -13.0216 -13.0216 -13.0214 -13.0214
    -8.5474  -8.5474  -8.4407  -8.4407  -8.2745  -8.2745  -8.2739  -8.2739
    -8.1481  -8.1481  -8.0515  -8.0515  -4.3888  -4.3888  -4.1974  -4.1974
    -4.1069  -4.1069  -4.1048  -4.1048  -4.0712  -4.0712  -4.0612  -4.0612
    -4.0602  -4.0602  -3.9764  -3.9764   0.2040   0.2040   0.2644   0.2644
     0.4787   0.4787   1.1876   1.1876   1.2328   1.2328   1.3511   1.3511
     1.6298   1.6298   1.7768   1.7768   2.0368   2.0368   2.0683   2.0683
     2.1361   2.1361   2.1369   2.1369   2.2271   2.2271   2.2337   2.2337
     2.3460   2.3460   2.4319   2.4319   2.6641   2.6641   2.7243   2.7243

     highest occupied level (ev):     3.4269

!    total energy              =   -8165.86062568 Ry
     estimated scf accuracy    <          7.7E-12 Ry

     The total energy is the sum of the following terms:
     one-electron contribution =    -325.14332121 Ry
     hartree contribution      =     251.36393320 Ry
     xc contribution           =    -792.78047531 Ry
     ewald contribution        =    -649.68138499 Ry
     one-center paw contrib.   =   -6649.61937739 Ry

     convergence has been achieved in  14 iterations

     Forces acting on atoms (cartesian axes, Ry/au):

     atom    1 type  1   force =     0.00019646   -0.00005845    0.00000000
     atom    2 type  1   force =    -0.00019646    0.00005845    0.00000000
     atom    3 type  1   force =     0.00019646    0.00005845    0.00000000
     atom    4 type  1   force =    -0.00019646   -0.00005845    0.00000000
     atom    5 type  2   force =     0.00000000    0.00000000    0.00000000
     atom    6 type  2   force =    -0.00000000    0.00000000    0.00000000
     atom    7 type  2   force =     0.00000000    0.00000000   -0.00000000
     atom    8 type  2   force =     0.00000000   -0.00000000    0.00000000
     atom    9 type  3   force =    -0.00013932   -0.00013407    0.00000000
     atom   10 type  3   force =     0.00013932    0.00013407    0.00000000
     atom   11 type  3   force =    -0.00013932    0.00013407    0.00000000
     atom   12 type  3   force =     0.00013932   -0.00013407    0.00000000
     atom   13 type  3   force =    -0.00009606   -0.00015644    0.00004663
     atom   14 type  3   force =     0.00009606    0.00015644    0.00004663
     atom   15 type  3   force =    -0.00009606    0.00015644   -0.00004663
     atom   16 type  3   force =     0.00009606   -0.00015644   -0.00004663
     atom   17 type  3   force =     0.00009606    0.00015644   -0.00004663
     atom   18 type  3   force =    -0.00009606   -0.00015644   -0.00004663
     atom   19 type  3   force =     0.00009606   -0.00015644    0.00004663
     atom   20 type  3   force =    -0.00009606    0.00015644    0.00004663

     Total force =     0.000778     Total SCF correction =     0.000003


     Computing stress (Cartesian axis) and pressure

          total   stress  (Ry/bohr**3)                   (kbar)     P=        0.13
  -0.00000073   0.00000000   0.00000000           -0.11        0.00        0.00
   0.00000000  -0.00000009   0.00000000            0.00       -0.01        0.00
   0.00000000   0.00000000   0.00000338            0.00        0.00        0.50


     number of scf cycles    =  10
     number of bfgs steps    =   9

     enthalpy old            =   -8165.8606201780 Ry
     enthalpy new            =   -8165.8606256840 Ry

     CASE: enthalpy_new < enthalpy_old

     new trust radius        =       0.0041601409 bohr
     new conv_thr            =            1.0E-11 Ry

     new unit-cell volume =   6236.16357 a.u.^3 (   924.10410 Ang^3 )
     density =      5.18100 g/cm^3

CELL_PARAMETERS (angstrom)
   8.370147343   0.000000000   0.000000000
   0.000000000   8.953456496   0.000000000
   0.000000000   0.000000000  12.330965027

ATOMIC_POSITIONS (angstrom)
Cs            3.9123634909        3.7282428731        3.0827412566
Cs            4.4577838521        5.2252136224        9.2482237699
Cs           -0.2727101806        0.7484853746        9.2482237699
Cs            8.6428575235        8.2049711209        3.0827412566
Pb            4.1850736715        0.0000000000       -0.0000000000
Pb            4.1850736715       -0.0000000000        6.1654825133
Pb            0.0000000000        4.4767282478        0.0000000000
Pb           -0.0000000000        4.4767282478        6.1654825133
I             4.8903501558        0.0614471010        3.0827412566
I             3.4797971872        8.8920093945        9.2482237699
I             0.7052764843        4.4152811468        9.2482237699
I             7.6648708587        4.5381753488        3.0827412566
I             5.7561730684        2.7327898757       11.8333732982
I             2.6139742746        6.2206666198        5.6678907849
I             1.5710993969        1.7439383720        0.4975917283
I             6.7990479461        7.2095181235        6.6630742416
I             2.6139742746        6.2206666198        0.4975917283
I             5.7561730684        2.7327898757        6.6630742416
I             6.7990479461        7.2095181235       11.8333732982
I             1.5710993969        1.7439383720        5.6678907849



     Writing output data file ./tmp/unit_tight.save/
     NEW-OLD atomic charge density approx. for the potential
     extrapolated charge  176.04340, renormalised to  176.00000

     total cpu time spent up to now is     3369.5 secs

     Self-consistent Calculation

     iteration #  1     ecut=    60.00 Ry     beta= 0.30
     Davidson diagonalization with overlap
     ethr =  1.00E-06,  avg # of iterations =  2.0

     Threshold (ethr) on eigenvalues was too large:
     Diagonalizing with lowered threshold

     Davidson diagonalization with overlap
     ethr =  1.20E-08,  avg # of iterations =  4.4

     total cpu time spent up to now is     3400.7 secs

     total energy              =   -8165.86060753 Ry
     estimated scf accuracy    <       0.00003467 Ry

     iteration #  2     ecut=    60.00 Ry     beta= 0.30
     Davidson diagonalization with overlap
     ethr =  1.97E-08,  avg # of iterations =  5.0

     total cpu time spent up to now is     3420.9 secs

     total energy              =   -8165.86063482 Ry
     estimated scf accuracy    <       0.00000865 Ry

     iteration #  3     ecut=    60.00 Ry     beta= 0.30
     Davidson diagonalization with overlap
     ethr =  4.91E-09,  avg # of iterations =  1.1

     total cpu time spent up to now is     3433.1 secs

     total energy              =   -8165.86063406 Ry
     estimated scf accuracy    <       0.00000446 Ry

     iteration #  4     ecut=    60.00 Ry     beta= 0.30
     Davidson diagonalization with overlap
     ethr =  2.54E-09,  avg # of iterations =  2.4

     total cpu time spent up to now is     3447.3 secs

     total energy              =   -8165.86063477 Ry
     estimated scf accuracy    <       0.00000030 Ry

     iteration #  5     ecut=    60.00 Ry     beta= 0.30
     Davidson diagonalization with overlap
     ethr =  1.71E-10,  avg # of iterations =  4.9

     total cpu time spent up to now is     3464.9 secs

     total energy              =   -8165.86063495 Ry
     estimated scf accuracy    <       0.00000010 Ry

     iteration #  6     ecut=    60.00 Ry     beta= 0.30
     Davidson diagonalization with overlap
     ethr =  5.77E-11,  avg # of iterations =  1.3

     total cpu time spent up to now is     3477.3 secs

     total energy              =   -8165.86063503 Ry
     estimated scf accuracy    <       0.00000008 Ry

     iteration #  7     ecut=    60.00 Ry     beta= 0.30
     Davidson diagonalization with overlap
     ethr =  4.37E-11,  avg # of iterations =  3.0

     total cpu time spent up to now is     3494.0 secs

     total energy              =   -8165.86063506 Ry
     estimated scf accuracy    <       0.00000005 Ry

     iteration #  8     ecut=    60.00 Ry     beta= 0.30
     Davidson diagonalization with overlap
     ethr =  3.10E-11,  avg # of iterations =  1.0

     total cpu time spent up to now is     3506.1 secs

     total energy              =   -8165.86063507 Ry
     estimated scf accuracy    <       0.00000004 Ry

     iteration #  9     ecut=    60.00 Ry     beta= 0.30
     Davidson diagonalization with overlap
     ethr =  2.06E-11,  avg # of iterations =  1.8

     total cpu time spent up to now is     3518.7 secs

     total energy              =   -8165.86063507 Ry
     estimated scf accuracy    <       0.00000001 Ry

     iteration # 10     ecut=    60.00 Ry     beta= 0.30
     Davidson diagonalization with overlap
     ethr =  5.96E-12,  avg # of iterations =  1.8

     total cpu time spent up to now is     3531.4 secs

     total energy              =   -8165.86063507 Ry
     estimated scf accuracy    <       0.00000001 Ry

     iteration # 11     ecut=    60.00 Ry     beta= 0.30
     Davidson diagonalization with overlap
     ethr =  5.96E-12,  avg # of iterations =  1.0

     total cpu time spent up to now is     3543.5 secs

     total energy              =   -8165.86063508 Ry
     estimated scf accuracy    <          6.7E-09 Ry

     iteration # 12     ecut=    60.00 Ry     beta= 0.30
     Davidson diagonalization with overlap
     ethr =  3.79E-12,  avg # of iterations =  2.0

     total cpu time spent up to now is     3556.3 secs

     total energy              =   -8165.86063508 Ry
     estimated scf accuracy    <          1.9E-09 Ry

     iteration # 13     ecut=    60.00 Ry     beta= 0.30
     Davidson diagonalization with overlap
     ethr =  1.10E-12,  avg # of iterations =  3.4

     total cpu time spent up to now is     3569.9 secs

     total energy              =   -8165.86063508 Ry
     estimated scf accuracy    <          9.8E-10 Ry

     iteration # 14     ecut=    60.00 Ry     beta= 0.30
     Davidson diagonalization with overlap
     ethr =  5.58E-13,  avg # of iterations =  3.7

     total cpu time spent up to now is     3584.1 secs

     total energy              =   -8165.86063508 Ry
     estimated scf accuracy    <          5.1E-11 Ry

     iteration # 15     ecut=    60.00 Ry     beta= 0.30
     Davidson diagonalization with overlap
     ethr =  1.00E-13,  avg # of iterations =  4.5

     total cpu time spent up to now is     3600.5 secs

     total energy              =   -8165.86063508 Ry
     estimated scf accuracy    <          1.1E-11 Ry

     iteration # 16     ecut=    60.00 Ry     beta= 0.30
     Davidson diagonalization with overlap
     ethr =  1.00E-13,  avg # of iterations =  2.0

     total cpu time spent up to now is     3613.2 secs

     total energy              =   -8165.86063508 Ry
     estimated scf accuracy    <          4.4E-11 Ry

     iteration # 17     ecut=    60.00 Ry     beta= 0.30
     Davidson diagonalization with overlap
     ethr =  1.00E-13,  avg # of iterations =  1.0

     total cpu time spent up to now is     3625.3 secs

     total energy              =   -8165.86063508 Ry
     estimated scf accuracy    <          3.5E-11 Ry

     iteration # 18     ecut=    60.00 Ry     beta= 0.30
     Davidson diagonalization with overlap
     ethr =  1.00E-13,  avg # of iterations =  1.0

     total cpu time spent up to now is     3637.1 secs

     End of self-consistent calculation

          k = 0.0000 0.0000 0.0000 ( 49019 PWs)   bands (ev):

   -17.2580 -17.2573 -17.2557 -17.2553 -13.0906 -13.0864 -13.0856 -13.0830
   -13.0760 -13.0688 -13.0652 -13.0651 -13.0332 -13.0330 -13.0326 -13.0324
   -13.0308 -13.0307 -13.0302 -13.0300 -13.0242 -13.0239 -13.0236 -13.0233
    -8.7818  -8.5819  -8.3390  -8.2898  -8.2832  -8.2719  -8.2572  -8.2360
    -8.2193  -8.0491  -8.0480  -8.0345  -4.9788  -4.4545  -4.1293  -4.1246
    -4.1213  -4.1190  -4.1157  -4.1136  -4.1067  -4.1007  -4.0929  -4.0706
    -4.0587  -4.0506  -3.9193  -3.4626  -0.0257   0.0304   0.0584   0.1883
     0.1939   0.2498   1.1098   1.4025   1.4140   1.4258   1.4398   1.4983
     1.7222   1.9198   1.9198   1.9334   2.0170   2.0177   2.0306   2.0618
     2.0662   2.0701   2.0994   2.1033   2.1567   2.3611   2.3806   2.4167
     2.4351   2.4492   2.4726   2.4979   2.6963   2.6990   2.9623   3.4247

          k = 0.0000 0.0000 0.2265 ( 48974 PWs)   bands (ev):

   -17.2578 -17.2575 -17.2556 -17.2554 -13.0869 -13.0859 -13.0856 -13.0798
   -13.0796 -13.0725 -13.0652 -13.0651 -13.0331 -13.0329 -13.0328 -13.0325
   -13.0308 -13.0307 -13.0301 -13.0301 -13.0241 -13.0239 -13.0235 -13.0234
    -8.7464  -8.6539  -8.3235  -8.2912  -8.2756  -8.2638  -8.2340  -8.2239
    -8.2050  -8.0933  -8.0449  -8.0377  -4.8568  -4.5940  -4.1292  -4.1280
    -4.1268  -4.1246  -4.1123  -4.1033  -4.0864  -4.0854  -4.0726  -4.0685
    -4.0676  -4.0603  -3.8608  -3.6227   0.0562   0.0921   0.0989   0.1655
     0.4112   0.6111   1.1092   1.1804   1.2929   1.4593   1.4675   1.5110
     1.5476   1.6637   1.8448   1.9326   1.9416   1.9749   2.0541   2.0646
     2.0783   2.1186   2.1596   2.1621   2.2605   2.2660   2.3201   2.3731
     2.3987   2.4149   2.4522   2.4673   2.6139   2.6750   2.9902   3.1402

          k = 0.0000 0.2339 0.0000 ( 49004 PWs)   bands (ev):

   -17.2577 -17.2570 -17.2560 -17.2556 -13.0896 -13.0856 -13.0827 -13.0819
   -13.0751 -13.0698 -13.0681 -13.0679 -13.0332 -13.0330 -13.0326 -13.0324
   -13.0307 -13.0306 -13.0303 -13.0301 -13.0241 -13.0238 -13.0237 -13.0234
    -8.7436  -8.5407  -8.4804  -8.3126  -8.2872  -8.2763  -8.2106  -8.1926
    -8.1716  -8.0777  -8.0617  -8.0562  -4.8501  -4.3558  -4.2332  -4.1333
    -4.1254  -4.1190  -4.1146  -4.1044  -4.0851  -4.0849  -4.0796  -4.0772
    -4.0695  -4.0319  -3.9974  -3.6291   0.0258   0.1865   0.2186   0.3087
     0.3816   0.4053   1.1750   1.2786   1.2794   1.3571   1.4379   1.4831
     1.5045   1.6026   1.7513   1.8566   1.9788   1.9846   2.0256   2.0480
     2.1147   2.1186   2.1644   2.1646   2.1871   2.2796   2.3380   2.3381
     2.3933   2.4116   2.4592   2.5156   2.6991   2.7249   2.7567   3.1436

          k = 0.0000 0.2339 0.2265 ( 48988 PWs)   bands (ev):

   -17.2575 -17.2572 -17.2559 -17.2557 -13.0860 -13.0835 -13.0828 -13.0802
   -13.0787 -13.0734 -13.0681 -13.0680 -13.0331 -13.0329 -13.0328 -13.0326
   -13.0307 -13.0306 -13.0302 -13.0302 -13.0241 -13.0239 -13.0236 -13.0235
    -8.7082  -8.6152  -8.4537  -8.3837  -8.2215  -8.2111  -8.2047  -8.1935
    -8.1831  -8.0979  -8.0737  -8.0655  -4.7340  -4.4842  -4.1582  -4.1283
    -4.1269  -4.1162  -4.1124  -4.1076  -4.0942  -4.0852  -4.0833  -4.0692
    -4.0649  -4.0523  -3.9736  -3.7770   0.2545   0.2674   0.3322   0.3490
     0.4858   0.5586   1.1336   1.2187   1.2612   1.3108   1.3262   1.4106
     1.5204   1.6060   1.6233   1.8201   1.8284   1.9315   1.9422   2.0231
     2.0383   2.1086   2.1178   2.1403   2.2705   2.3152   2.3606   2.3735
     2.4056   2.4057   2.4360   2.4849   2.6595   2.6964   2.7293   2.8840

          k = 0.0000-0.4678 0.0000 ( 48914 PWs)   bands (ev):

   -17.2568 -17.2568 -17.2563 -17.2563 -13.0874 -13.0874 -13.0759 -13.0759
   -13.0753 -13.0753 -13.0718 -13.0718 -13.0331 -13.0331 -13.0325 -13.0325
   -13.0305 -13.0305 -13.0304 -13.0304 -13.0239 -13.0239 -13.0236 -13.0236
    -8.6357  -8.6357  -8.4336  -8.4336  -8.2823  -8.2823  -8.1456  -8.1456
    -8.1275  -8.1275  -8.0908  -8.0908  -4.5378  -4.5378  -4.1633  -4.1633
    -4.1197  -4.1197  -4.0970  -4.0970  -4.0959  -4.0959  -4.0805  -4.0805
    -4.0596  -4.0596  -3.9240  -3.9240   0.1010   0.1010   0.6473   0.6473
     0.8372   0.8372   0.9102   0.9102   0.9981   0.9981   1.3203   1.3203
     1.6144   1.6144   1.7395   1.7395   1.8500   1.8500   2.0272   2.0272
     2.0971   2.0971   2.1285   2.1285   2.2260   2.2260   2.3477   2.3477
     2.3968   2.3968   2.4549   2.4549   2.6446   2.6446   2.8755   2.8755

          k = 0.0000-0.4678 0.2265 ( 48958 PWs)   bands (ev):

   -17.2567 -17.2567 -17.2564 -17.2564 -13.0837 -13.0837 -13.0772 -13.0772
   -13.0752 -13.0752 -13.0743 -13.0743 -13.0330 -13.0330 -13.0327 -13.0327
   -13.0305 -13.0305 -13.0304 -13.0304 -13.0238 -13.0238 -13.0237 -13.0237
    -8.6020  -8.6020  -8.5123  -8.5123  -8.2067  -8.2067  -8.1427  -8.1427
    -8.1317  -8.1317  -8.1198  -8.1198  -4.4315  -4.4315  -4.2215  -4.2215
    -4.1233  -4.1233  -4.1080  -4.1080  -4.0940  -4.0940  -4.0765  -4.0765
    -4.0580  -4.0580  -4.0022  -4.0022   0.4456   0.4456   0.6896   0.6896
     0.7708   0.7708   0.9292   0.9292   0.9673   0.9673   1.2255   1.2255
     1.6707   1.6707   1.7198   1.7198   1.7962   1.7962   1.8963   1.8963
     1.9467   1.9467   1.9808   1.9808   2.3286   2.3286   2.3914   2.3914
     2.4035   2.4035   2.4751   2.4751   2.6546   2.6546   2.7137   2.7137

          k = 0.2502 0.0000 0.0000 ( 48921 PWs)   bands (ev):

   -17.2577 -17.2571 -17.2559 -17.2555 -13.0896 -13.0856 -13.0827 -13.0818
   -13.0751 -13.0698 -13.0682 -13.0679 -13.0332 -13.0330 -13.0326 -13.0324
   -13.0307 -13.0306 -13.0303 -13.0301 -13.0241 -13.0238 -13.0237 -13.0234
    -8.7401  -8.5359  -8.4638  -8.2881  -8.2813  -8.2784  -8.2487  -8.2254
    -8.1552  -8.0827  -8.0677  -8.0556  -4.8479  -4.3474  -4.2103  -4.1250
    -4.1221  -4.1163  -4.1124  -4.1058  -4.1051  -4.0866  -4.0819  -4.0712
    -4.0632  -4.0384  -3.9930  -3.6320   0.0245   0.1861   0.1899   0.3257
     0.3386   0.4774   1.1413   1.1877   1.3152   1.3818   1.5040   1.5049
     1.5080   1.6082   1.8314   1.8487   1.9878   1.9942   2.0270   2.0360
     2.1231   2.1270   2.1761   2.2070   2.2164   2.2323   2.2474   2.3685
     2.3793   2.4078   2.4536   2.5114   2.6235   2.6838   2.7174   3.0617

          k = 0.2502 0.0000 0.2265 ( 48983 PWs)   bands (ev):

   -17.2576 -17.2573 -17.2558 -17.2556 -13.0860 -13.0835 -13.0828 -13.0802
   -13.0787 -13.0734 -13.0681 -13.0680 -13.0331 -13.0329 -13.0328 -13.0326
   -13.0307 -13.0306 -13.0302 -13.0302 -13.0240 -13.0239 -13.0236 -13.0235
    -8.7047  -8.6113  -8.4369  -8.3664  -8.2441  -8.2334  -8.2080  -8.2042
    -8.1674  -8.0977  -8.0782  -8.0707  -4.7309  -4.4781  -4.1405  -4.1325
    -4.1285  -4.1189  -4.0990  -4.0974  -4.0917  -4.0862  -4.0790  -4.0667
    -4.0629  -4.0600  -3.9794  -3.7843   0.2177   0.2632   0.3206   0.4237
     0.4718   0.5530   1.1098   1.1544   1.2213   1.3440   1.3904   1.3940
     1.5814   1.6209   1.6411   1.7947   1.9278   1.9410   2.0355   2.0417
     2.0683   2.0847   2.1574   2.1949   2.2472   2.2525   2.3123   2.3663
     2.3867   2.3984   2.4246   2.4800   2.5817   2.6042   2.6914   2.7745

          k = 0.2502 0.2339 0.0000 ( 48919 PWs)   bands (ev):

   -17.2575 -17.2569 -17.2561 -17.2557 -13.0898 -13.0864 -13.0818 -13.0793
   -13.0745 -13.0719 -13.0698 -13.0674 -13.0332 -13.0331 -13.0326 -13.0324
   -13.0307 -13.0305 -13.0303 -13.0302 -13.0241 -13.0238 -13.0237 -13.0234
    -8.7059  -8.5069  -8.4960  -8.2878  -8.2850  -8.2791  -8.2629  -8.2496
    -8.1407  -8.0999  -8.0951  -8.0339  -4.7467  -4.2996  -4.2774  -4.1221
    -4.1147  -4.1134  -4.1132  -4.1024  -4.0936  -4.0804  -4.0770  -4.0754
    -4.0718  -4.0239  -4.0092  -3.7213   0.0421   0.1034   0.1538   0.2539
     0.7073   0.8199   0.8608   1.0363   1.2618   1.2696   1.2936   1.5447
     1.5667   1.7063   1.7984   1.9202   1.9577   1.9806   2.0515   2.0612
     2.0775   2.1169   2.1350   2.1431   2.2189   2.2805   2.3240   2.3265
     2.3397   2.3626   2.4446   2.4788   2.6054   2.7130   2.7550   3.0641

          k = 0.2502 0.2339 0.2265 ( 48969 PWs)   bands (ev):

   -17.2573 -17.2570 -17.2560 -17.2558 -13.0866 -13.0830 -13.0825 -13.0786
   -13.0771 -13.0746 -13.0696 -13.0686 -13.0330 -13.0329 -13.0327 -13.0326
   -13.0306 -13.0306 -13.0303 -13.0302 -13.0240 -13.0238 -13.0237 -13.0235
    -8.6702  -8.5753  -8.4749  -8.3889  -8.2658  -8.2612  -8.2100  -8.1751
    -8.1474  -8.1150  -8.0958  -8.0629  -4.6349  -4.3952  -4.2091  -4.1232
    -4.1218  -4.1174  -4.1068  -4.0955  -4.0909  -4.0853  -4.0788  -4.0735
    -4.0647  -4.0443  -4.0148  -3.8624   0.1347   0.1981   0.4055   0.5141
     0.7580   0.7756   0.8977   0.9613   1.1372   1.2482   1.3094   1.3640
     1.5740   1.6791   1.7078   1.8063   1.8663   1.9142   1.9324   1.9690
     2.0728   2.1003   2.1829   2.2136   2.2606   2.3070   2.3216   2.3468
     2.3709   2.3861   2.4365   2.4558   2.5882   2.6171   2.6962   2.8010

          k = 0.2502-0.4678 0.0000 ( 48942 PWs)   bands (ev):

   -17.2568 -17.2568 -17.2563 -17.2563 -13.0886 -13.0886 -13.0785 -13.0785
   -13.0741 -13.0741 -13.0692 -13.0692 -13.0331 -13.0331 -13.0325 -13.0325
   -13.0305 -13.0305 -13.0303 -13.0303 -13.0239 -13.0239 -13.0236 -13.0236
    -8.6141  -8.6141  -8.3930  -8.3930  -8.2866  -8.2866  -8.2184  -8.2184
    -8.1764  -8.1764  -8.0429  -8.0429  -4.5141  -4.5141  -4.1463  -4.1463
    -4.1177  -4.1177  -4.0985  -4.0985  -4.0917  -4.0917  -4.0783  -4.0783
    -4.0646  -4.0646  -3.9021  -3.9021   0.0928   0.0928   0.3414   0.3414
     0.4923   0.4923   1.1629   1.1629   1.2388   1.2388   1.3627   1.3627
     1.6381   1.6381   1.8449   1.8449   1.9560   1.9560   2.0364   2.0364
     2.1189   2.1189   2.2110   2.2110   2.2169   2.2169   2.2752   2.2752
     2.3388   2.3388   2.3932   2.3932   2.6483   2.6483   2.8802   2.8802

          k = 0.2502-0.4678 0.2265 ( 48988 PWs)   bands (ev):

   -17.2567 -17.2567 -17.2564 -17.2564 -13.0853 -13.0853 -13.0801 -13.0801
   -13.0736 -13.0736 -13.0714 -13.0714 -13.0330 -13.0330 -13.0327 -13.0327
   -13.0305 -13.0305 -13.0304 -13.0304 -13.0238 -13.0238 -13.0237 -13.0237
    -8.5785  -8.5785  -8.4829  -8.4829  -8.2353  -8.2353  -8.2200  -8.2200
    -8.1425  -8.1425  -8.0716  -8.0716  -4.4112  -4.4112  -4.2099  -4.2099
    -4.1169  -4.1169  -4.1071  -4.1071  -4.0842  -4.0842  -4.0752  -4.0752
    -4.0552  -4.0552  -3.9913  -3.9913   0.3520   0.3520   0.4224   0.4224
     0.5086   0.5086   1.1616   1.1616   1.2091   1.2091   1.2332   1.2332
     1.5682   1.5682   1.7620   1.7620   1.8915   1.8915   1.9930   1.9930
     2.0853   2.0853   2.1192   2.1192   2.3052   2.3052   2.3355   2.3355
     2.3739   2.3739   2.4162   2.4162   2.6264   2.6264   2.6659   2.6659

          k =-0.5004 0.0000 0.0000 ( 48876 PWs)   bands (ev):

   -17.2572 -17.2572 -17.2559 -17.2559 -13.0873 -13.0873 -13.0760 -13.0760
   -13.0753 -13.0753 -13.0718 -13.0718 -13.0331 -13.0331 -13.0325 -13.0325
   -13.0305 -13.0305 -13.0304 -13.0304 -13.0239 -13.0239 -13.0236 -13.0236
    -8.6242  -8.6242  -8.4163  -8.4163  -8.2851  -8.2851  -8.1700  -8.1700
    -8.1473  -8.1473  -8.0838  -8.0838  -4.5282  -4.5282  -4.1597  -4.1597
    -4.1175  -4.1175  -4.0971  -4.0971  -4.0736  -4.0736  -4.0667  -4.0667
    -4.0511  -4.0511  -3.9519  -3.9519   0.1025   0.1025   0.5979   0.5979
     0.8134   0.8134   0.9235   0.9235   1.1276   1.1276   1.2679   1.2679
     1.5977   1.5977   1.8195   1.8195   1.9223   1.9223   2.0352   2.0352
     2.0628   2.0628   2.2113   2.2113   2.2289   2.2289   2.2830   2.2830
     2.3700   2.3700   2.4492   2.4492   2.5039   2.5039   2.7689   2.7689

          k =-0.5004 0.0000 0.2265 ( 48902 PWs)   bands (ev):

   -17.2571 -17.2571 -17.2559 -17.2559 -13.0837 -13.0837 -13.0772 -13.0772
   -13.0752 -13.0752 -13.0742 -13.0742 -13.0330 -13.0330 -13.0327 -13.0327
   -13.0305 -13.0305 -13.0304 -13.0304 -13.0238 -13.0238 -13.0237 -13.0237
    -8.5904  -8.5904  -8.4995  -8.4995  -8.2059  -8.2059  -8.1710  -8.1710
    -8.1467  -8.1467  -8.1130  -8.1130  -4.4192  -4.4192  -4.2040  -4.2040
    -4.1202  -4.1202  -4.1088  -4.1088  -4.0811  -4.0811  -4.0683  -4.0683
    -4.0480  -4.0480  -4.0335  -4.0335   0.4466   0.4466   0.6420   0.6420
     0.7533   0.7533   0.9413   0.9413   1.0384   1.0384   1.1733   1.1733
     1.6813   1.6813   1.8291   1.8291   1.8489   1.8489   1.9519   1.9519
     1.9666   1.9666   2.0845   2.0845   2.3075   2.3075   2.3329   2.3329
     2.3792   2.3792   2.4322   2.4322   2.5049   2.5049   2.5448   2.5448

          k =-0.5004 0.2339 0.0000 ( 48934 PWs)   bands (ev):

   -17.2570 -17.2570 -17.2560 -17.2560 -13.0886 -13.0886 -13.0785 -13.0785
   -13.0741 -13.0741 -13.0692 -13.0692 -13.0331 -13.0331 -13.0325 -13.0325
   -13.0305 -13.0305 -13.0303 -13.0303 -13.0239 -13.0239 -13.0236 -13.0236
    -8.6075  -8.6075  -8.3807  -8.3807  -8.2884  -8.2884  -8.2268  -8.2268
    -8.1901  -8.1901  -8.0436  -8.0436  -4.5090  -4.5090  -4.1480  -4.1480
    -4.1055  -4.1055  -4.1053  -4.1053  -4.0846  -4.0846  -4.0738  -4.0738
    -4.0578  -4.0578  -3.9134  -3.9134   0.0923   0.0923   0.3303   0.3303
     0.5023   0.5023   1.1210   1.1210   1.2490   1.2490   1.4335   1.4335
     1.6513   1.6513   1.8640   1.8640   1.9860   1.9860   2.0628   2.0628
     2.0846   2.0846   2.1889   2.1889   2.2064   2.2064   2.2619   2.2619
     2.3093   2.3093   2.3958   2.3958   2.6067   2.6067   2.8400   2.8400

          k =-0.5004 0.2339 0.2265 ( 48884 PWs)   bands (ev):

   -17.2570 -17.2570 -17.2561 -17.2561 -13.0853 -13.0853 -13.0801 -13.0801
   -13.0736 -13.0736 -13.0714 -13.0714 -13.0330 -13.0330 -13.0327 -13.0327
   -13.0305 -13.0305 -13.0304 -13.0304 -13.0238 -13.0238 -13.0237 -13.0237
    -8.5717  -8.5717  -8.4751  -8.4751  -8.2423  -8.2423  -8.2239  -8.2239
    -8.1502  -8.1502  -8.0733  -8.0733  -4.4049  -4.4049  -4.2027  -4.2027
    -4.1092  -4.1092  -4.1025  -4.1025  -4.0909  -4.0909  -4.0724  -4.0724
    -4.0484  -4.0484  -4.0041  -4.0041   0.3532   0.3532   0.4117   0.4117
     0.5094   0.5094   1.0993   1.0993   1.2361   1.2361   1.2757   1.2757
     1.5991   1.5991   1.7917   1.7917   1.9012   1.9012   2.0560   2.0560
     2.1113   2.1113   2.1580   2.1580   2.2586   2.2586   2.2854   2.2854
     2.3248   2.3248   2.4111   2.4111   2.5743   2.5743   2.6018   2.6018

          k =-0.5004-0.4678 0.0000 ( 48992 PWs)   bands (ev):

   -17.2568 -17.2568 -17.2563 -17.2563 -13.0896 -13.0896 -13.0801 -13.0801
   -13.0731 -13.0731 -13.0677 -13.0677 -13.0331 -13.0331 -13.0325 -13.0325
   -13.0305 -13.0305 -13.0303 -13.0303 -13.0239 -13.0239 -13.0236 -13.0236
    -8.5878  -8.5878  -8.3016  -8.3016  -8.2998  -8.2998  -8.2762  -8.2762
    -8.2616  -8.2616  -8.0202  -8.0202  -4.4901  -4.4901  -4.1301  -4.1301
    -4.1127  -4.1127  -4.1007  -4.1007  -4.0852  -4.0852  -4.0765  -4.0765
    -4.0720  -4.0720  -3.8810  -3.8810   0.0795   0.0795   0.1695   0.1695
     0.3312   0.3312   1.1637   1.1637   1.2946   1.2946   1.6302   1.6302
     1.6628   1.6628   1.9230   1.9230   1.9600   1.9600   2.0287   2.0287
     2.1251   2.1251   2.1738   2.1738   2.2117   2.2117   2.2326   2.2326
     2.2677   2.2677   2.4312   2.4312   2.6910   2.6910   2.9507   2.9507

          k =-0.5004-0.4678 0.2265 ( 48964 PWs)   bands (ev):

   -17.2567 -17.2567 -17.2564 -17.2564 -13.0866 -13.0866 -13.0817 -13.0817
   -13.0723 -13.0723 -13.0698 -13.0698 -13.0330 -13.0330 -13.0327 -13.0327
   -13.0305 -13.0305 -13.0304 -13.0304 -13.0238 -13.0238 -13.0237 -13.0237
    -8.5492  -8.5492  -8.4426  -8.4426  -8.2758  -8.2758  -8.2753  -8.2753
    -8.1500  -8.1500  -8.0534  -8.0534  -4.3908  -4.3908  -4.1995  -4.1995
    -4.1095  -4.1095  -4.1074  -4.1074  -4.0739  -4.0739  -4.0638  -4.0638
    -4.0628  -4.0628  -3.9789  -3.9789   0.2023   0.2023   0.2623   0.2623
     0.4772   0.4772   1.1861   1.1861   1.2310   1.2310   1.3497   1.3497
     1.6280   1.6280   1.7745   1.7745   2.0344   2.0344   2.0667   2.0667
     2.1344   2.1344   2.1351   2.1351   2.2254   2.2254   2.2318   2.2318
     2.3440   2.3440   2.4302   2.4302   2.6620   2.6620   2.7221   2.7221

     highest occupied level (ev):     3.4247

!    total energy              =   -8165.86063508 Ry
     estimated scf accuracy    <          2.5E-13 Ry

     The total energy is the sum of the following terms:
     one-electron contribution =    -325.27477390 Ry
     hartree contribution      =     251.41552402 Ry
     xc contribution           =    -792.77926397 Ry
     ewald contribution        =    -649.60277989 Ry
     one-center paw contrib.   =   -6649.61934134 Ry

     convergence has been achieved in  18 iterations

     Forces acting on atoms (cartesian axes, Ry/au):

     atom    1 type  1   force =     0.00016285   -0.00002077   -0.00000000
     atom    2 type  1   force =    -0.00016285    0.00002077    0.00000000
     atom    3 type  1   force =     0.00016285    0.00002077    0.00000000
     atom    4 type  1   force =    -0.00016285   -0.00002077    0.00000000
     atom    5 type  2   force =    -0.00000000    0.00000000    0.00000000
     atom    6 type  2   force =     0.00000000    0.00000000    0.00000000
     atom    7 type  2   force =     0.00000000    0.00000000    0.00000000
     atom    8 type  2   force =     0.00000000   -0.00000000    0.00000000
     atom    9 type  3   force =    -0.00011149   -0.00012675    0.00000000
     atom   10 type  3   force =     0.00011149    0.00012675   -0.00000000
     atom   11 type  3   force =    -0.00011149    0.00012675   -0.00000000
     atom   12 type  3   force =     0.00011149   -0.00012675    0.00000000
     atom   13 type  3   force =    -0.00007789   -0.00011082    0.00004426
     atom   14 type  3   force =     0.00007789    0.00011082    0.00004426
     atom   15 type  3   force =    -0.00007789    0.00011082   -0.00004426
     atom   16 type  3   force =     0.00007789   -0.00011082   -0.00004426
     atom   17 type  3   force =     0.00007789    0.00011082   -0.00004426
     atom   18 type  3   force =    -0.00007789   -0.00011082   -0.00004426
     atom   19 type  3   force =     0.00007789   -0.00011082    0.00004426
     atom   20 type  3   force =    -0.00007789    0.00011082    0.00004426

     Total force =     0.000620     Total SCF correction =     0.000001


     Computing stress (Cartesian axis) and pressure

          total   stress  (Ry/bohr**3)                   (kbar)     P=        0.09
  -0.00000089   0.00000000   0.00000000           -0.13        0.00        0.00
   0.00000000  -0.00000040   0.00000000            0.00       -0.06        0.00
   0.00000000   0.00000000   0.00000312            0.00        0.00        0.46


     number of scf cycles    =  11
     number of bfgs steps    =  10

     enthalpy old            =   -8165.8606256840 Ry
     enthalpy new            =   -8165.8606350792 Ry

     CASE: enthalpy_new < enthalpy_old

     new trust radius        =       0.0062395587 bohr
     new conv_thr            =            1.0E-11 Ry

     new unit-cell volume =   6238.89434 a.u.^3 (   924.50876 Ang^3 )
     density =      5.17873 g/cm^3

CELL_PARAMETERS (angstrom)
   8.367990347   0.000000000   0.000000000
   0.000000000   8.956418018   0.000000000
   0.000000000   0.000000000  12.335464397

ATOMIC_POSITIONS (angstrom)
Cs            3.9130800748        3.7285082480        3.0838660993
Cs            4.4549102724        5.2279097696        9.2515982979
Cs           -0.2709150988        0.7497007608        9.2515982979
Cs            8.6389054460        8.2067172569        3.0838660993
Pb            4.1839951736        0.0000000000       -0.0000000000
Pb            4.1839951736       -0.0000000000        6.1677321986
Pb            0.0000000000        4.4782090088        0.0000000000
Pb           -0.0000000000        4.4782090088        6.1677321986
I             4.8860341510        0.0602181595        3.0838660993
I             3.4819561963        8.8961998581        9.2515982979
I             0.7020389773        4.4179908493        9.2515982979
I             7.6659513699        4.5384271683        3.0838660993
I             5.7544452399        2.7328507904       11.8378392063
I             2.6135451073        6.2235672272        5.6701070077
I             1.5704500663        1.7453582184        0.4976251909
I             6.7975402810        7.2110597992        6.6653573895
I             2.6135451073        6.2235672272        0.4976251909
I             5.7544452399        2.7328507904        6.6653573895
I             6.7975402810        7.2110597992       11.8378392063
I             1.5704500663        1.7453582184        5.6701070077



     Writing output data file ./tmp/unit_tight.save/
     NEW-OLD atomic charge density approx. for the potential
     extrapolated charge  176.07697, renormalised to  176.00000

     total cpu time spent up to now is     3726.5 secs

     Self-consistent Calculation

     iteration #  1     ecut=    60.00 Ry     beta= 0.30
     Davidson diagonalization with overlap
     ethr =  1.00E-06,  avg # of iterations =  2.0

     Threshold (ethr) on eigenvalues was too large:
     Diagonalizing with lowered threshold

     Davidson diagonalization with overlap
     ethr =  3.76E-08,  avg # of iterations =  4.8

     total cpu time spent up to now is     3757.9 secs

     total energy              =   -8165.86055795 Ry
     estimated scf accuracy    <       0.00011869 Ry

     iteration #  2     ecut=    60.00 Ry     beta= 0.30
     Davidson diagonalization with overlap
     ethr =  6.74E-08,  avg # of iterations =  5.0

     total cpu time spent up to now is     3778.0 secs

     total energy              =   -8165.86064758 Ry
     estimated scf accuracy    <       0.00002927 Ry

     iteration #  3     ecut=    60.00 Ry     beta= 0.30
     Davidson diagonalization with overlap
     ethr =  1.66E-08,  avg # of iterations =  1.1

     total cpu time spent up to now is     3790.2 secs

     total energy              =   -8165.86064506 Ry
     estimated scf accuracy    <       0.00001520 Ry

     iteration #  4     ecut=    60.00 Ry     beta= 0.30
     Davidson diagonalization with overlap
     ethr =  8.64E-09,  avg # of iterations =  2.2

     total cpu time spent up to now is     3804.1 secs

     total energy              =   -8165.86064710 Ry
     estimated scf accuracy    <       0.00000150 Ry

     iteration #  5     ecut=    60.00 Ry     beta= 0.30
     Davidson diagonalization with overlap
     ethr =  8.54E-10,  avg # of iterations =  4.6

     total cpu time spent up to now is     3820.6 secs

     total energy              =   -8165.86064768 Ry
     estimated scf accuracy    <       0.00000050 Ry

     iteration #  6     ecut=    60.00 Ry     beta= 0.30
     Davidson diagonalization with overlap
     ethr =  2.83E-10,  avg # of iterations =  1.6

     total cpu time spent up to now is     3833.1 secs

     total energy              =   -8165.86064790 Ry
     estimated scf accuracy    <       0.00000037 Ry

     iteration #  7     ecut=    60.00 Ry     beta= 0.30
     Davidson diagonalization with overlap
     ethr =  2.13E-10,  avg # of iterations =  2.0

     total cpu time spent up to now is     3847.3 secs

     total energy              =   -8165.86064798 Ry
     estimated scf accuracy    <       0.00000012 Ry

     iteration #  8     ecut=    60.00 Ry     beta= 0.30
     Davidson diagonalization with overlap
     ethr =  7.03E-11,  avg # of iterations =  4.5

     total cpu time spent up to now is     3862.6 secs

     total energy              =   -8165.86064802 Ry
     estimated scf accuracy    <       0.00000015 Ry

     iteration #  9     ecut=    60.00 Ry     beta= 0.30
     Davidson diagonalization with overlap
     ethr =  7.03E-11,  avg # of iterations =  1.0

     total cpu time spent up to now is     3874.6 secs

     total energy              =   -8165.86064803 Ry
     estimated scf accuracy    <       0.00000013 Ry

     iteration # 10     ecut=    60.00 Ry     beta= 0.30
     Davidson diagonalization with overlap
     ethr =  7.03E-11,  avg # of iterations =  1.0

     total cpu time spent up to now is     3886.6 secs

     total energy              =   -8165.86064803 Ry
     estimated scf accuracy    <       0.00000005 Ry

     iteration # 11     ecut=    60.00 Ry     beta= 0.30
     Davidson diagonalization with overlap
     ethr =  2.87E-11,  avg # of iterations =  2.0

     total cpu time spent up to now is     3899.3 secs

     total energy              =   -8165.86064803 Ry
     estimated scf accuracy    <       0.00000002 Ry

     iteration # 12     ecut=    60.00 Ry     beta= 0.30
     Davidson diagonalization with overlap
     ethr =  1.35E-11,  avg # of iterations =  1.0

     total cpu time spent up to now is     3911.3 secs

     total energy              =   -8165.86064804 Ry
     estimated scf accuracy    <       0.00000002 Ry

     iteration # 13     ecut=    60.00 Ry     beta= 0.30
     Davidson diagonalization with overlap
     ethr =  8.67E-12,  avg # of iterations =  1.1

     total cpu time spent up to now is     3923.6 secs

     total energy              =   -8165.86064804 Ry
     estimated scf accuracy    <       0.00000001 Ry

     iteration # 14     ecut=    60.00 Ry     beta= 0.30
     Davidson diagonalization with overlap
     ethr =  6.41E-12,  avg # of iterations =  4.1

     total cpu time spent up to now is     3938.8 secs

     total energy              =   -8165.86064804 Ry
     estimated scf accuracy    <          5.0E-10 Ry

     iteration # 15     ecut=    60.00 Ry     beta= 0.30
     Davidson diagonalization with overlap
     ethr =  2.84E-13,  avg # of iterations =  3.6

     total cpu time spent up to now is     3954.6 secs

     total energy              =   -8165.86064804 Ry
     estimated scf accuracy    <          6.5E-10 Ry

     iteration # 16     ecut=    60.00 Ry     beta= 0.30
     Davidson diagonalization with overlap
     ethr =  2.84E-13,  avg # of iterations =  2.0

     total cpu time spent up to now is     3967.9 secs

     total energy              =   -8165.86064804 Ry
     estimated scf accuracy    <          1.1E-10 Ry

     iteration # 17     ecut=    60.00 Ry     beta= 0.30
     Davidson diagonalization with overlap
     ethr =  1.00E-13,  avg # of iterations =  4.0

     total cpu time spent up to now is     3984.0 secs

     total energy              =   -8165.86064804 Ry
     estimated scf accuracy    <          1.1E-10 Ry

     iteration # 18     ecut=    60.00 Ry     beta= 0.30
     Davidson diagonalization with overlap
     ethr =  1.00E-13,  avg # of iterations =  2.0

     total cpu time spent up to now is     3997.2 secs

     End of self-consistent calculation

          k = 0.0000 0.0000 0.0000 ( 49019 PWs)   bands (ev):

   -17.2629 -17.2622 -17.2607 -17.2602 -13.0946 -13.0904 -13.0895 -13.0870
   -13.0801 -13.0729 -13.0691 -13.0689 -13.0373 -13.0370 -13.0367 -13.0364
   -13.0348 -13.0347 -13.0342 -13.0340 -13.0282 -13.0279 -13.0276 -13.0273
    -8.7847  -8.5846  -8.3426  -8.2931  -8.2864  -8.2754  -8.2603  -8.2386
    -8.2217  -8.0517  -8.0514  -8.0372  -4.9822  -4.4581  -4.1339  -4.1291
    -4.1257  -4.1237  -4.1202  -4.1173  -4.1113  -4.1050  -4.0975  -4.0754
    -4.0635  -4.0555  -3.9239  -3.4665  -0.0291   0.0266   0.0562   0.1846
     0.1933   0.2444   1.1075   1.3996   1.4105   1.4223   1.4367   1.4974
     1.7192   1.9149   1.9180   1.9304   2.0133   2.0147   2.0277   2.0585
     2.0619   2.0657   2.0957   2.0998   2.1537   2.3594   2.3768   2.4126
     2.4303   2.4472   2.4710   2.4950   2.6930   2.6957   2.9590   3.4204

          k = 0.0000 0.0000 0.2264 ( 48974 PWs)   bands (ev):

   -17.2628 -17.2624 -17.2605 -17.2603 -13.0910 -13.0898 -13.0895 -13.0838
   -13.0837 -13.0766 -13.0690 -13.0690 -13.0371 -13.0369 -13.0368 -13.0366
   -13.0348 -13.0347 -13.0341 -13.0341 -13.0281 -13.0279 -13.0275 -13.0274
    -8.7493  -8.6567  -8.3271  -8.2949  -8.2786  -8.2669  -8.2362  -8.2262
    -8.2086  -8.0967  -8.0476  -8.0404  -4.8602  -4.5976  -4.1337  -4.1325
    -4.1313  -4.1290  -4.1168  -4.1077  -4.0911  -4.0901  -4.0770  -4.0732
    -4.0723  -4.0651  -3.8648  -3.6266   0.0523   0.0898   0.0951   0.1633
     0.4080   0.6076   1.1067   1.1779   1.2904   1.4559   1.4643   1.5075
     1.5460   1.6604   1.8415   1.9299   1.9371   1.9711   2.0503   2.0611
     2.0742   2.1144   2.1562   2.1582   2.2575   2.2618   2.3167   2.3711
     2.3944   2.4125   2.4505   2.4641   2.6114   2.6717   2.9866   3.1359

          k = 0.0000 0.2338 0.0000 ( 49004 PWs)   bands (ev):

   -17.2626 -17.2619 -17.2610 -17.2605 -13.0936 -13.0896 -13.0866 -13.0857
   -13.0791 -13.0738 -13.0720 -13.0718 -13.0372 -13.0371 -13.0366 -13.0364
   -13.0347 -13.0346 -13.0343 -13.0341 -13.0281 -13.0278 -13.0277 -13.0274
    -8.7465  -8.5435  -8.4836  -8.3157  -8.2907  -8.2800  -8.2131  -8.1951
    -8.1750  -8.0803  -8.0644  -8.0596  -4.8535  -4.3593  -4.2366  -4.1379
    -4.1299  -4.1234  -4.1192  -4.1090  -4.0898  -4.0894  -4.0841  -4.0819
    -4.0742  -4.0367  -4.0023  -3.6330   0.0225   0.1837   0.2162   0.3049
     0.3784   0.4017   1.1724   1.2751   1.2766   1.3541   1.4345   1.4799
     1.5009   1.5999   1.7486   1.8523   1.9761   1.9825   2.0237   2.0447
     2.1112   2.1157   2.1599   2.1609   2.1829   2.2755   2.3337   2.3365
     2.3898   2.4093   2.4571   2.5126   2.6959   2.7215   2.7535   3.1397

          k = 0.0000 0.2338 0.2264 ( 48988 PWs)   bands (ev):

   -17.2624 -17.2621 -17.2609 -17.2606 -13.0900 -13.0874 -13.0867 -13.0842
   -13.0827 -13.0775 -13.0720 -13.0719 -13.0371 -13.0369 -13.0368 -13.0366
   -13.0347 -13.0346 -13.0342 -13.0342 -13.0280 -13.0279 -13.0276 -13.0275
    -8.7111  -8.6180  -8.4569  -8.3869  -8.2250  -8.2138  -8.2076  -8.1962
    -8.1865  -8.1014  -8.0763  -8.0682  -4.7375  -4.4877  -4.1620  -4.1329
    -4.1314  -4.1207  -4.1169  -4.1122  -4.0987  -4.0898  -4.0879  -4.0739
    -4.0695  -4.0571  -3.9781  -3.7810   0.2521   0.2638   0.3300   0.3454
     0.4825   0.5551   1.1309   1.2159   1.2587   1.3077   1.3228   1.4072
     1.5173   1.6032   1.6195   1.8157   1.8258   1.9269   1.9391   2.0193
     2.0354   2.1058   2.1146   2.1369   2.2677   2.3110   2.3584   2.3696
     2.4023   2.4033   2.4326   2.4816   2.6566   2.6931   2.7259   2.8799

          k = 0.0000-0.4677 0.0000 ( 48914 PWs)   bands (ev):

   -17.2618 -17.2618 -17.2612 -17.2612 -13.0914 -13.0914 -13.0799 -13.0799
   -13.0791 -13.0791 -13.0758 -13.0758 -13.0371 -13.0371 -13.0365 -13.0365
   -13.0345 -13.0345 -13.0344 -13.0344 -13.0279 -13.0279 -13.0276 -13.0276
    -8.6387  -8.6387  -8.4365  -8.4365  -8.2860  -8.2860  -8.1481  -8.1481
    -8.1301  -8.1301  -8.0943  -8.0943  -4.5411  -4.5411  -4.1674  -4.1674
    -4.1241  -4.1241  -4.1017  -4.1017  -4.1005  -4.1005  -4.0852  -4.0852
    -4.0643  -4.0643  -3.9284  -3.9284   0.0978   0.0978   0.6447   0.6447
     0.8343   0.8343   0.9064   0.9064   0.9946   0.9946   1.3170   1.3170
     1.6112   1.6112   1.7364   1.7364   1.8466   1.8466   2.0252   2.0252
     2.0943   2.0943   2.1252   2.1252   2.2218   2.2218   2.3451   2.3451
     2.3938   2.3938   2.4515   2.4515   2.6417   2.6417   2.8723   2.8723

          k = 0.0000-0.4677 0.2264 ( 48958 PWs)   bands (ev):

   -17.2616 -17.2616 -17.2614 -17.2614 -13.0878 -13.0878 -13.0812 -13.0812
   -13.0790 -13.0790 -13.0782 -13.0782 -13.0370 -13.0370 -13.0367 -13.0367
   -13.0345 -13.0345 -13.0344 -13.0344 -13.0278 -13.0278 -13.0277 -13.0277
    -8.6050  -8.6050  -8.5153  -8.5153  -8.2102  -8.2102  -8.1453  -8.1453
    -8.1342  -8.1342  -8.1232  -8.1232  -4.4349  -4.4349  -4.2252  -4.2252
    -4.1278  -4.1278  -4.1126  -4.1126  -4.0986  -4.0986  -4.0811  -4.0811
    -4.0628  -4.0628  -4.0070  -4.0070   0.4425   0.4425   0.6868   0.6868
     0.7681   0.7681   0.9259   0.9259   0.9635   0.9635   1.2223   1.2223
     1.6677   1.6677   1.7160   1.7160   1.7927   1.7927   1.8933   1.8933
     1.9443   1.9443   1.9768   1.9768   2.3259   2.3259   2.3874   2.3874
     2.4010   2.4010   2.4713   2.4713   2.6516   2.6516   2.7105   2.7105

          k = 0.2503 0.0000 0.0000 ( 48921 PWs)   bands (ev):

   -17.2627 -17.2621 -17.2608 -17.2604 -13.0936 -13.0896 -13.0866 -13.0857
   -13.0791 -13.0738 -13.0720 -13.0718 -13.0372 -13.0371 -13.0366 -13.0364
   -13.0347 -13.0346 -13.0343 -13.0341 -13.0281 -13.0278 -13.0277 -13.0274
    -8.7430  -8.5386  -8.4668  -8.2917  -8.2837  -8.2820  -8.2516  -8.2285
    -8.1581  -8.0855  -8.0705  -8.0590  -4.8513  -4.3510  -4.2137  -4.1293
    -4.1266  -4.1208  -4.1171  -4.1105  -4.1094  -4.0912  -4.0865  -4.0758
    -4.0679  -4.0432  -3.9979  -3.6359   0.0212   0.1824   0.1867   0.3233
     0.3350   0.4746   1.1391   1.1852   1.3123   1.3787   1.5008   1.5016
     1.5052   1.6048   1.8282   1.8456   1.9845   1.9915   2.0245   2.0326
     2.1200   2.1235   2.1722   2.2030   2.2127   2.2302   2.2452   2.3650
     2.3752   2.4036   2.4501   2.5090   2.6196   2.6805   2.7135   3.0576

          k = 0.2503 0.0000 0.2264 ( 48983 PWs)   bands (ev):

   -17.2625 -17.2622 -17.2607 -17.2605 -13.0900 -13.0874 -13.0867 -13.0842
   -13.0827 -13.0775 -13.0720 -13.0719 -13.0371 -13.0369 -13.0368 -13.0366
   -13.0347 -13.0346 -13.0342 -13.0342 -13.0280 -13.0279 -13.0276 -13.0275
    -8.7076  -8.6141  -8.4399  -8.3694  -8.2471  -8.2365  -8.2110  -8.2076
    -8.1703  -8.1011  -8.0810  -8.0735  -4.7343  -4.4816  -4.1444  -4.1369
    -4.1329  -4.1233  -4.1036  -4.1019  -4.0961  -4.0908  -4.0836  -4.0714
    -4.0676  -4.0647  -3.9839  -3.7881   0.2141   0.2598   0.3177   0.4213
     0.4688   0.5496   1.1070   1.1521   1.2188   1.3414   1.3878   1.3908
     1.5780   1.6175   1.6376   1.7904   1.9256   1.9372   2.0311   2.0389
     2.0656   2.0799   2.1547   2.1918   2.2437   2.2492   2.3082   2.3634
     2.3837   2.3943   2.4211   2.4774   2.5788   2.6006   2.6876   2.7701

          k = 0.2503 0.2338 0.0000 ( 48919 PWs)   bands (ev):

   -17.2624 -17.2618 -17.2611 -17.2607 -13.0938 -13.0904 -13.0857 -13.0832
   -13.0785 -13.0759 -13.0736 -13.0713 -13.0372 -13.0371 -13.0366 -13.0364
   -13.0347 -13.0345 -13.0343 -13.0342 -13.0281 -13.0278 -13.0277 -13.0274
    -8.7088  -8.5099  -8.4988  -8.2915  -8.2884  -8.2821  -8.2657  -8.2521
    -8.1434  -8.1027  -8.0983  -8.0372  -4.7501  -4.3029  -4.2811  -4.1266
    -4.1192  -4.1180  -4.1176  -4.1070  -4.0981  -4.0850  -4.0817  -4.0801
    -4.0765  -4.0287  -4.0140  -3.7253   0.0387   0.1004   0.1500   0.2513
     0.7043   0.8168   0.8575   1.0334   1.2591   1.2668   1.2904   1.5414
     1.5633   1.7035   1.7951   1.9170   1.9546   1.9777   2.0488   2.0575
     2.0750   2.1136   2.1312   2.1398   2.2154   2.2779   2.3210   2.3225
     2.3366   2.3591   2.4411   2.4764   2.6018   2.7095   2.7511   3.0601

          k = 0.2503 0.2338 0.2264 ( 48969 PWs)   bands (ev):

   -17.2622 -17.2620 -17.2610 -17.2608 -13.0906 -13.0870 -13.0865 -13.0825
   -13.0812 -13.0786 -13.0735 -13.0726 -13.0371 -13.0369 -13.0368 -13.0366
   -13.0346 -13.0346 -13.0343 -13.0342 -13.0280 -13.0278 -13.0277 -13.0275
    -8.6731  -8.5781  -8.4780  -8.3921  -8.2686  -8.2640  -8.2134  -8.1783
    -8.1503  -8.1182  -8.0986  -8.0660  -4.6383  -4.3987  -4.2126  -4.1277
    -4.1263  -4.1218  -4.1113  -4.1000  -4.0955  -4.0899  -4.0834  -4.0781
    -4.0694  -4.0490  -4.0195  -3.8664   0.1316   0.1948   0.4023   0.5114
     0.7551   0.7722   0.8947   0.9584   1.1344   1.2454   1.3065   1.3613
     1.5705   1.6756   1.7047   1.8025   1.8627   1.9116   1.9286   1.9658
     2.0694   2.0966   2.1797   2.2105   2.2573   2.3042   2.3183   2.3431
     2.3675   2.3830   2.4332   2.4531   2.5847   2.6136   2.6925   2.7968

          k = 0.2503-0.4677 0.0000 ( 48942 PWs)   bands (ev):

   -17.2618 -17.2618 -17.2612 -17.2612 -13.0926 -13.0926 -13.0825 -13.0825
   -13.0780 -13.0780 -13.0732 -13.0732 -13.0371 -13.0371 -13.0365 -13.0365
   -13.0345 -13.0345 -13.0344 -13.0344 -13.0279 -13.0279 -13.0276 -13.0276
    -8.6171  -8.6171  -8.3959  -8.3959  -8.2902  -8.2902  -8.2211  -8.2211
    -8.1790  -8.1790  -8.0461  -8.0461  -4.5174  -4.5174  -4.1505  -4.1505
    -4.1222  -4.1222  -4.1031  -4.1031  -4.0963  -4.0963  -4.0830  -4.0830
    -4.0692  -4.0692  -3.9065  -3.9065   0.0894   0.0894   0.3383   0.3383
     0.4895   0.4895   1.1598   1.1598   1.2356   1.2356   1.3593   1.3593
     1.6346   1.6346   1.8423   1.8423   1.9530   1.9530   2.0332   2.0332
     2.1152   2.1152   2.2079   2.2079   2.2133   2.2133   2.2728   2.2728
     2.3354   2.3354   2.3906   2.3906   2.6447   2.6447   2.8765   2.8765

          k = 0.2503-0.4677 0.2264 ( 48988 PWs)   bands (ev):

   -17.2616 -17.2616 -17.2614 -17.2614 -13.0893 -13.0893 -13.0841 -13.0841
   -13.0775 -13.0775 -13.0753 -13.0753 -13.0370 -13.0370 -13.0367 -13.0367
   -13.0345 -13.0345 -13.0344 -13.0344 -13.0278 -13.0278 -13.0277 -13.0277
    -8.5815  -8.5815  -8.4860  -8.4860  -8.2384  -8.2384  -8.2227  -8.2227
    -8.1455  -8.1455  -8.0749  -8.0749  -4.4146  -4.4146  -4.2136  -4.2136
    -4.1215  -4.1215  -4.1117  -4.1117  -4.0888  -4.0888  -4.0798  -4.0798
    -4.0600  -4.0600  -3.9959  -3.9959   0.3487   0.3487   0.4185   0.4185
     0.5065   0.5065   1.1586   1.1586   1.2063   1.2063   1.2301   1.2301
     1.5645   1.5645   1.7586   1.7586   1.8876   1.8876   1.9895   1.9895
     2.0825   2.0825   2.1164   2.1164   2.3028   2.3028   2.3316   2.3316
     2.3716   2.3716   2.4126   2.4126   2.6227   2.6227   2.6619   2.6619

          k =-0.5006 0.0000 0.0000 ( 48876 PWs)   bands (ev):

   -17.2621 -17.2621 -17.2608 -17.2608 -13.0914 -13.0914 -13.0799 -13.0799
   -13.0791 -13.0791 -13.0758 -13.0758 -13.0371 -13.0371 -13.0365 -13.0365
   -13.0345 -13.0345 -13.0344 -13.0344 -13.0279 -13.0279 -13.0276 -13.0276
    -8.6271  -8.6271  -8.4189  -8.4189  -8.2888  -8.2888  -8.1728  -8.1728
    -8.1503  -8.1503  -8.0871  -8.0871  -4.5315  -4.5315  -4.1638  -4.1638
    -4.1218  -4.1218  -4.1018  -4.1018  -4.0783  -4.0783  -4.0713  -4.0713
    -4.0558  -4.0558  -3.9560  -3.9560   0.0991   0.0991   0.5948   0.5948
     0.8099   0.8099   0.9208   0.9208   1.1250   1.1250   1.2648   1.2648
     1.5949   1.5949   1.8165   1.8165   1.9193   1.9193   2.0331   2.0331
     2.0596   2.0596   2.2072   2.2072   2.2264   2.2264   2.2790   2.2790
     2.3664   2.3664   2.4457   2.4457   2.4999   2.4999   2.7645   2.7645

          k =-0.5006 0.0000 0.2264 ( 48902 PWs)   bands (ev):

   -17.2621 -17.2621 -17.2609 -17.2609 -13.0878 -13.0878 -13.0812 -13.0812
   -13.0791 -13.0791 -13.0782 -13.0782 -13.0370 -13.0370 -13.0367 -13.0367
   -13.0345 -13.0345 -13.0344 -13.0344 -13.0278 -13.0278 -13.0277 -13.0277
    -8.5933  -8.5933  -8.5024  -8.5024  -8.2092  -8.2092  -8.1738  -8.1738
    -8.1497  -8.1497  -8.1162  -8.1162  -4.4226  -4.4226  -4.2077  -4.2077
    -4.1245  -4.1245  -4.1134  -4.1134  -4.0858  -4.0858  -4.0729  -4.0729
    -4.0527  -4.0527  -4.0380  -4.0380   0.4435   0.4435   0.6387   0.6387
     0.7500   0.7500   0.9385   0.9385   1.0361   1.0361   1.1703   1.1703
     1.6784   1.6784   1.8260   1.8260   1.8455   1.8455   1.9494   1.9494
     1.9645   1.9645   2.0795   2.0795   2.3036   2.3036   2.3290   2.3290
     2.3761   2.3761   2.4289   2.4289   2.5007   2.5007   2.5408   2.5408

          k =-0.5006 0.2338 0.0000 ( 48934 PWs)   bands (ev):

   -17.2620 -17.2620 -17.2610 -17.2610 -13.0926 -13.0926 -13.0825 -13.0825
   -13.0780 -13.0780 -13.0732 -13.0732 -13.0371 -13.0371 -13.0365 -13.0365
   -13.0345 -13.0345 -13.0344 -13.0344 -13.0279 -13.0279 -13.0276 -13.0276
    -8.6104  -8.6104  -8.3833  -8.3833  -8.2921  -8.2921  -8.2295  -8.2295
    -8.1929  -8.1929  -8.0468  -8.0468  -4.5124  -4.5124  -4.1521  -4.1521
    -4.1101  -4.1101  -4.1097  -4.1097  -4.0892  -4.0892  -4.0784  -4.0784
    -4.0626  -4.0626  -3.9176  -3.9176   0.0887   0.0887   0.3272   0.3272
     0.4994   0.4994   1.1184   1.1184   1.2459   1.2459   1.4306   1.4306
     1.6480   1.6480   1.8611   1.8611   1.9827   1.9827   2.0599   2.0599
     2.0818   2.0818   2.1851   2.1851   2.2032   2.2032   2.2583   2.2583
     2.3060   2.3060   2.3924   2.3924   2.6031   2.6031   2.8359   2.8359

          k =-0.5006 0.2338 0.2264 ( 48884 PWs)   bands (ev):

   -17.2619 -17.2619 -17.2611 -17.2611 -13.0893 -13.0893 -13.0841 -13.0841
   -13.0775 -13.0775 -13.0753 -13.0753 -13.0370 -13.0370 -13.0367 -13.0367
   -13.0345 -13.0345 -13.0344 -13.0344 -13.0278 -13.0278 -13.0277 -13.0277
    -8.5746  -8.5746  -8.4780  -8.4780  -8.2454  -8.2454  -8.2266  -8.2266
    -8.1534  -8.1534  -8.0765  -8.0765  -4.4083  -4.4083  -4.2064  -4.2064
    -4.1138  -4.1138  -4.1070  -4.1070  -4.0955  -4.0955  -4.0770  -4.0770
    -4.0531  -4.0531  -4.0086  -4.0086   0.3499   0.3499   0.4077   0.4077
     0.5073   0.5073   1.0966   1.0966   1.2332   1.2332   1.2731   1.2731
     1.5958   1.5958   1.7886   1.7886   1.8977   1.8977   2.0527   2.0527
     2.1084   2.1084   2.1545   2.1545   2.2544   2.2544   2.2819   2.2819
     2.3217   2.3217   2.4080   2.4080   2.5706   2.5706   2.5977   2.5977

          k =-0.5006-0.4677 0.0000 ( 48992 PWs)   bands (ev):

   -17.2618 -17.2618 -17.2612 -17.2612 -13.0936 -13.0936 -13.0841 -13.0841
   -13.0769 -13.0769 -13.0717 -13.0717 -13.0371 -13.0371 -13.0365 -13.0365
   -13.0345 -13.0345 -13.0343 -13.0343 -13.0279 -13.0279 -13.0276 -13.0276
    -8.5908  -8.5908  -8.3044  -8.3044  -8.3033  -8.3033  -8.2789  -8.2789
    -8.2644  -8.2644  -8.0235  -8.0235  -4.4935  -4.4935  -4.1343  -4.1343
    -4.1172  -4.1172  -4.1054  -4.1054  -4.0898  -4.0898  -4.0812  -4.0812
    -4.0766  -4.0766  -3.8852  -3.8852   0.0758   0.0758   0.1664   0.1664
     0.3287   0.3287   1.1606   1.1606   1.2919   1.2919   1.6271   1.6271
     1.6596   1.6596   1.9200   1.9200   1.9559   1.9559   2.0268   2.0268
     2.1218   2.1218   2.1704   2.1704   2.2082   2.2082   2.2294   2.2294
     2.2639   2.2639   2.4284   2.4284   2.6875   2.6875   2.9468   2.9468

          k =-0.5006-0.4677 0.2264 ( 48964 PWs)   bands (ev):

   -17.2616 -17.2616 -17.2613 -17.2613 -13.0906 -13.0906 -13.0857 -13.0857
   -13.0762 -13.0762 -13.0737 -13.0737 -13.0370 -13.0370 -13.0367 -13.0367
   -13.0345 -13.0345 -13.0344 -13.0344 -13.0278 -13.0278 -13.0277 -13.0277
    -8.5523  -8.5523  -8.4457  -8.4457  -8.2785  -8.2785  -8.2779  -8.2779
    -8.1533  -8.1533  -8.0567  -8.0567  -4.3942  -4.3942  -4.2032  -4.2032
    -4.1140  -4.1140  -4.1121  -4.1121  -4.0785  -4.0785  -4.0685  -4.0685
    -4.0675  -4.0675  -3.9834  -3.9834   0.1991   0.1991   0.2586   0.2586
     0.4748   0.4748   1.1834   1.1834   1.2279   1.2279   1.3472   1.3472
     1.6247   1.6247   1.7705   1.7705   2.0304   2.0304   2.0637   2.0637
     2.1315   2.1315   2.1320   2.1320   2.2222   2.2222   2.2284   2.2284
     2.3405   2.3405   2.4272   2.4272   2.6582   2.6582   2.7180   2.7180

     highest occupied level (ev):     3.4204

!    total energy              =   -8165.86064804 Ry
     estimated scf accuracy    <          2.2E-13 Ry

     The total energy is the sum of the following terms:
     one-electron contribution =    -325.49064918 Ry
     hartree contribution      =     251.49826675 Ry
     xc contribution           =    -792.77697293 Ry
     ewald contribution        =    -649.47202881 Ry
     one-center paw contrib.   =   -6649.61926387 Ry

     convergence has been achieved in  18 iterations

     Forces acting on atoms (cartesian axes, Ry/au):

     atom    1 type  1   force =     0.00010427    0.00003919    0.00000000
     atom    2 type  1   force =    -0.00010427   -0.00003919    0.00000000
     atom    3 type  1   force =     0.00010427   -0.00003919    0.00000000
     atom    4 type  1   force =    -0.00010427    0.00003919   -0.00000000
     atom    5 type  2   force =    -0.00000000    0.00000000    0.00000000
     atom    6 type  2   force =     0.00000000    0.00000000    0.00000000
     atom    7 type  2   force =     0.00000000    0.00000000   -0.00000000
     atom    8 type  2   force =     0.00000000   -0.00000000    0.00000000
     atom    9 type  3   force =    -0.00008838   -0.00011602    0.00000000
     atom   10 type  3   force =     0.00008838    0.00011602    0.00000000
     atom   11 type  3   force =    -0.00008838    0.00011602   -0.00000000
     atom   12 type  3   force =     0.00008838   -0.00011602   -0.00000000
     atom   13 type  3   force =    -0.00004176   -0.00002637    0.00003712
     atom   14 type  3   force =     0.00004176    0.00002637    0.00003712
     atom   15 type  3   force =    -0.00004176    0.00002637   -0.00003712
     atom   16 type  3   force =     0.00004176   -0.00002637   -0.00003712
     atom   17 type  3   force =     0.00004176    0.00002637   -0.00003712
     atom   18 type  3   force =    -0.00004176   -0.00002637   -0.00003712
     atom   19 type  3   force =     0.00004176   -0.00002637    0.00003712
     atom   20 type  3   force =    -0.00004176    0.00002637    0.00003712

     Total force =     0.000407     Total SCF correction =     0.000001


     Computing stress (Cartesian axis) and pressure

          total   stress  (Ry/bohr**3)                   (kbar)     P=        0.02
  -0.00000113   0.00000000   0.00000000           -0.17        0.00        0.00
   0.00000000  -0.00000082   0.00000000            0.00       -0.12        0.00
   0.00000000   0.00000000   0.00000240            0.00        0.00        0.35


     number of scf cycles    =  12
     number of bfgs steps    =  11

     enthalpy old            =   -8165.8606350792 Ry
     enthalpy new            =   -8165.8606480389 Ry

     CASE: enthalpy_new < enthalpy_old

     new trust radius        =       0.0093577143 bohr
     new conv_thr            =            1.0E-11 Ry

     new unit-cell volume =   6242.63448 a.u.^3 (   925.06299 Ang^3 )
     density =      5.17563 g/cm^3

CELL_PARAMETERS (angstrom)
   8.364978740   0.000000000   0.000000000
   0.000000000   8.959706374   0.000000000
   0.000000000   0.000000000  12.342771437

ATOMIC_POSITIONS (angstrom)
Cs            3.9138942475        3.7287212971        3.0856928593
Cs            4.4510844925        5.2309850766        9.2570785778
Cs           -0.2685951225        0.7511318898        9.2570785778
Cs            8.6335738626        8.2085744840        3.0856928593
Pb            4.1824893700        0.0000000000        0.0000000000
Pb            4.1824893700       -0.0000000000        6.1713857185
Pb            0.0000000000        4.4798531869       -0.0000000000
Pb           -0.0000000000        4.4798531869        6.1713857185
I             4.8805012934        0.0586026999        3.0856928593
I             3.4844774467        8.9011036739        9.2570785778
I             0.6980119233        4.4212504870        9.2570785778
I             7.6669668167        4.5384558867        3.0856928593
I             5.7520044497        2.7327497523       11.8450766644
I             2.6129742903        6.2269566215        5.6736909458
I             1.5695150797        1.7471034346        0.4976947727
I             6.7954636604        7.2126029392        6.6690804913
I             2.6129742903        6.2269566215        0.4976947727
I             5.7520044497        2.7327497523        6.6690804913
I             6.7954636604        7.2126029392       11.8450766644
I             1.5695150797        1.7471034346        5.6736909458



     Writing output data file ./tmp/unit_tight.save/
     NEW-OLD atomic charge density approx. for the potential
     extrapolated charge  176.10535, renormalised to  176.00000

     total cpu time spent up to now is     4086.7 secs

     Self-consistent Calculation

     iteration #  1     ecut=    60.00 Ry     beta= 0.30
     Davidson diagonalization with overlap
     ethr =  1.00E-06,  avg # of iterations =  2.4

     Threshold (ethr) on eigenvalues was too large:
     Diagonalizing with lowered threshold

     Davidson diagonalization with overlap
     ethr =  6.99E-08,  avg # of iterations =  4.9

     total cpu time spent up to now is     4118.2 secs

     total energy              =   -8165.86048833 Ry
     estimated scf accuracy    <       0.00022685 Ry

     iteration #  2     ecut=    60.00 Ry     beta= 0.30
     Davidson diagonalization with overlap
     ethr =  1.29E-07,  avg # of iterations =  5.0

     total cpu time spent up to now is     4138.4 secs

     total energy              =   -8165.86065813 Ry
     estimated scf accuracy    <       0.00005563 Ry

     iteration #  3     ecut=    60.00 Ry     beta= 0.30
     Davidson diagonalization with overlap
     ethr =  3.16E-08,  avg # of iterations =  1.1

     total cpu time spent up to now is     4150.6 secs

     total energy              =   -8165.86065343 Ry
     estimated scf accuracy    <       0.00002890 Ry

     iteration #  4     ecut=    60.00 Ry     beta= 0.30
     Davidson diagonalization with overlap
     ethr =  1.64E-08,  avg # of iterations =  2.2

     total cpu time spent up to now is     4164.2 secs

     total energy              =   -8165.86065707 Ry
     estimated scf accuracy    <       0.00000334 Ry

     iteration #  5     ecut=    60.00 Ry     beta= 0.30
     Davidson diagonalization with overlap
     ethr =  1.90E-09,  avg # of iterations =  4.4

     total cpu time spent up to now is     4179.8 secs

     total energy              =   -8165.86065813 Ry
     estimated scf accuracy    <       0.00000145 Ry

     iteration #  6     ecut=    60.00 Ry     beta= 0.30
     Davidson diagonalization with overlap
     ethr =  8.23E-10,  avg # of iterations =  2.8

     total cpu time spent up to now is     4193.3 secs

     total energy              =   -8165.86065860 Ry
     estimated scf accuracy    <       0.00000099 Ry

     iteration #  7     ecut=    60.00 Ry     beta= 0.30
     Davidson diagonalization with overlap
     ethr =  5.61E-10,  avg # of iterations =  2.0

     total cpu time spent up to now is     4206.2 secs

     total energy              =   -8165.86065875 Ry
     estimated scf accuracy    <       0.00000025 Ry

     iteration #  8     ecut=    60.00 Ry     beta= 0.30
     Davidson diagonalization with overlap
     ethr =  1.43E-10,  avg # of iterations =  4.1

     total cpu time spent up to now is     4220.4 secs

     total energy              =   -8165.86065882 Ry
     estimated scf accuracy    <       0.00000025 Ry

     iteration #  9     ecut=    60.00 Ry     beta= 0.30
     Davidson diagonalization with overlap
     ethr =  1.43E-10,  avg # of iterations =  1.1

     total cpu time spent up to now is     4232.4 secs

     total energy              =   -8165.86065883 Ry
     estimated scf accuracy    <       0.00000015 Ry

     iteration # 10     ecut=    60.00 Ry     beta= 0.30
     Davidson diagonalization with overlap
     ethr =  8.62E-11,  avg # of iterations =  1.9

     total cpu time spent up to now is     4245.1 secs

     total energy              =   -8165.86065884 Ry
     estimated scf accuracy    <       0.00000007 Ry

     iteration # 11     ecut=    60.00 Ry     beta= 0.30
     Davidson diagonalization with overlap
     ethr =  3.93E-11,  avg # of iterations =  1.3

     total cpu time spent up to now is     4257.5 secs

     total energy              =   -8165.86065884 Ry
     estimated scf accuracy    <       0.00000004 Ry

     iteration # 12     ecut=    60.00 Ry     beta= 0.30
     Davidson diagonalization with overlap
     ethr =  2.31E-11,  avg # of iterations =  1.7

     total cpu time spent up to now is     4270.0 secs

     total energy              =   -8165.86065885 Ry
     estimated scf accuracy    <       0.00000001 Ry

     iteration # 13     ecut=    60.00 Ry     beta= 0.30
     Davidson diagonalization with overlap
     ethr =  7.88E-12,  avg # of iterations =  2.0

     total cpu time spent up to now is     4282.8 secs

     total energy              =   -8165.86065885 Ry
     estimated scf accuracy    <          6.7E-09 Ry

     iteration # 14     ecut=    60.00 Ry     beta= 0.30
     Davidson diagonalization with overlap
     ethr =  3.82E-12,  avg # of iterations =  4.7

     total cpu time spent up to now is     4298.3 secs

     total energy              =   -8165.86065885 Ry
     estimated scf accuracy    <          1.1E-10 Ry

     iteration # 15     ecut=    60.00 Ry     beta= 0.30
     Davidson diagonalization with overlap
     ethr =  1.00E-13,  avg # of iterations =  5.8

     total cpu time spent up to now is     4316.4 secs

     total energy              =   -8165.86065885 Ry
     estimated scf accuracy    <          1.2E-10 Ry

     iteration # 16     ecut=    60.00 Ry     beta= 0.30
     Davidson diagonalization with overlap
     ethr =  1.00E-13,  avg # of iterations =  2.9

     total cpu time spent up to now is     4329.7 secs

     total energy              =   -8165.86065885 Ry
     estimated scf accuracy    <          2.8E-11 Ry

     iteration # 17     ecut=    60.00 Ry     beta= 0.30
     Davidson diagonalization with overlap
     ethr =  1.00E-13,  avg # of iterations =  2.0

     total cpu time spent up to now is     4342.7 secs

     total energy              =   -8165.86065885 Ry
     estimated scf accuracy    <          1.1E-10 Ry

     iteration # 18     ecut=    60.00 Ry     beta= 0.30
     Davidson diagonalization with overlap
     ethr =  1.00E-13,  avg # of iterations =  1.0

     total cpu time spent up to now is     4354.8 secs

     total energy              =   -8165.86065885 Ry
     estimated scf accuracy    <          8.6E-11 Ry

     iteration # 19     ecut=    60.00 Ry     beta= 0.30
     Davidson diagonalization with overlap
     ethr =  1.00E-13,  avg # of iterations =  1.0

     total cpu time spent up to now is     4366.8 secs

     total energy              =   -8165.86065885 Ry
     estimated scf accuracy    <          3.5E-11 Ry

     iteration # 20     ecut=    60.00 Ry     beta= 0.30
     Davidson diagonalization with overlap
     ethr =  1.00E-13,  avg # of iterations =  1.0

     total cpu time spent up to now is     4378.7 secs

     End of self-consistent calculation

          k = 0.0000 0.0000 0.0000 ( 49019 PWs)   bands (ev):

   -17.2697 -17.2690 -17.2674 -17.2670 -13.1001 -13.0958 -13.0949 -13.0924
   -13.0856 -13.0784 -13.0744 -13.0743 -13.0428 -13.0426 -13.0422 -13.0419
   -13.0403 -13.0402 -13.0397 -13.0395 -13.0337 -13.0334 -13.0331 -13.0328
    -8.7885  -8.5886  -8.3469  -8.2972  -8.2908  -8.2798  -8.2649  -8.2422
    -8.2252  -8.0559  -8.0555  -8.0411  -4.9867  -4.4635  -4.1402  -4.1353
    -4.1317  -4.1300  -4.1265  -4.1222  -4.1176  -4.1110  -4.1037  -4.0818
    -4.0700  -4.0621  -3.9299  -3.4720  -0.0331   0.0212   0.0529   0.1794
     0.1921   0.2381   1.1041   1.3954   1.4054   1.4177   1.4326   1.4963
     1.7154   1.9084   1.9152   1.9260   2.0077   2.0115   2.0235   2.0538
     2.0561   2.0599   2.0908   2.0949   2.1499   2.3571   2.3715   2.4069
     2.4240   2.4444   2.4685   2.4910   2.6880   2.6912   2.9548   3.4144

          k = 0.0000 0.0000 0.2262 ( 48974 PWs)   bands (ev):

   -17.2695 -17.2691 -17.2673 -17.2671 -13.0965 -13.0952 -13.0949 -13.0893
   -13.0892 -13.0821 -13.0744 -13.0744 -13.0427 -13.0424 -13.0424 -13.0421
   -13.0403 -13.0403 -13.0396 -13.0396 -13.0337 -13.0335 -13.0331 -13.0329
    -8.7532  -8.6606  -8.3315  -8.2994  -8.2829  -8.2713  -8.2395  -8.2297
    -8.2132  -8.1012  -8.0514  -8.0442  -4.8649  -4.6027  -4.1400  -4.1385
    -4.1374  -4.1351  -4.1230  -4.1138  -4.0973  -4.0965  -4.0831  -4.0797
    -4.0787  -4.0716  -3.8700  -3.6317   0.0469   0.0865   0.0898   0.1599
     0.4041   0.6037   1.1031   1.1742   1.2868   1.4514   1.4600   1.5030
     1.5439   1.6560   1.8369   1.9260   1.9312   1.9660   2.0450   2.0564
     2.0688   2.1088   2.1515   2.1531   2.2532   2.2561   2.3122   2.3683
     2.3888   2.4091   2.4480   2.4597   2.6078   2.6672   2.9820   3.1302

          k = 0.0000 0.2338 0.0000 ( 49004 PWs)   bands (ev):

   -17.2693 -17.2687 -17.2677 -17.2673 -13.0991 -13.0951 -13.0920 -13.0911
   -13.0847 -13.0794 -13.0774 -13.0772 -13.0428 -13.0426 -13.0422 -13.0420
   -13.0403 -13.0401 -13.0398 -13.0396 -13.0337 -13.0333 -13.0332 -13.0329
    -8.7503  -8.5475  -8.4877  -8.3201  -8.2950  -8.2845  -8.2167  -8.1987
    -8.1795  -8.0840  -8.0682  -8.0642  -4.8580  -4.3646  -4.2410  -4.1442
    -4.1360  -4.1295  -4.1254  -4.1153  -4.0961  -4.0955  -4.0903  -4.0884
    -4.0807  -4.0434  -4.0089  -3.6386   0.0188   0.1807   0.2128   0.2996
     0.3737   0.3966   1.1688   1.2705   1.2730   1.3499   1.4296   1.4757
     1.4959   1.5965   1.7448   1.8468   1.9724   1.9793   2.0211   2.0400
     2.1063   2.1119   2.1540   2.1559   2.1772   2.2701   2.3278   2.3342
     2.3849   2.4061   2.4540   2.5085   2.6917   2.7168   2.7487   3.1341

          k = 0.0000 0.2338 0.2262 ( 48988 PWs)   bands (ev):

   -17.2692 -17.2688 -17.2676 -17.2674 -13.0955 -13.0929 -13.0920 -13.0896
   -13.0883 -13.0830 -13.0774 -13.0773 -13.0427 -13.0425 -13.0424 -13.0422
   -13.0402 -13.0402 -13.0397 -13.0397 -13.0336 -13.0334 -13.0332 -13.0330
    -8.7150  -8.6220  -8.4610  -8.3912  -8.2295  -8.2174  -8.2116  -8.2000
    -8.1910  -8.1059  -8.0800  -8.0720  -4.7421  -4.4928  -4.1670  -4.1391
    -4.1375  -4.1269  -4.1231  -4.1183  -4.1049  -4.0961  -4.0941  -4.0803
    -4.0759  -4.0637  -3.9841  -3.7864   0.2486   0.2590   0.3265   0.3402
     0.4781   0.5511   1.1271   1.2121   1.2554   1.3035   1.3181   1.4026
     1.5130   1.5995   1.6144   1.8099   1.8221   1.9210   1.9347   2.0143
     2.0314   2.1022   2.1103   2.1323   2.2640   2.3053   2.3554   2.3644
     2.3977   2.4001   2.4280   2.4771   2.6526   2.6887   2.7214   2.8744

          k = 0.0000-0.4675 0.0000 ( 48914 PWs)   bands (ev):

   -17.2685 -17.2685 -17.2680 -17.2680 -13.0969 -13.0969 -13.0853 -13.0853
   -13.0845 -13.0845 -13.0813 -13.0813 -13.0427 -13.0427 -13.0421 -13.0421
   -13.0400 -13.0400 -13.0399 -13.0399 -13.0335 -13.0335 -13.0331 -13.0331
    -8.6426  -8.6426  -8.4407  -8.4407  -8.2904  -8.2904  -8.1517  -8.1517
    -8.1338  -8.1338  -8.0988  -8.0988  -4.5454  -4.5454  -4.1731  -4.1731
    -4.1301  -4.1301  -4.1081  -4.1081  -4.1069  -4.1069  -4.0916  -4.0916
    -4.0706  -4.0706  -3.9347  -3.9347   0.0943   0.0943   0.6411   0.6411
     0.8300   0.8300   0.9012   0.9012   0.9897   0.9897   1.3127   1.3127
     1.6070   1.6070   1.7320   1.7320   1.8419   1.8419   2.0223   2.0223
     2.0903   2.0903   2.1205   2.1205   2.2159   2.2159   2.3413   2.3413
     2.3896   2.3896   2.4469   2.4469   2.6377   2.6377   2.8674   2.8674

          k = 0.0000-0.4675 0.2262 ( 48958 PWs)   bands (ev):

   -17.2684 -17.2684 -17.2681 -17.2681 -13.0933 -13.0933 -13.0867 -13.0867
   -13.0844 -13.0844 -13.0836 -13.0836 -13.0426 -13.0426 -13.0423 -13.0423
   -13.0400 -13.0400 -13.0399 -13.0399 -13.0334 -13.0334 -13.0332 -13.0332
    -8.6090  -8.6090  -8.5194  -8.5194  -8.2147  -8.2147  -8.1491  -8.1491
    -8.1378  -8.1378  -8.1277  -8.1277  -4.4394  -4.4394  -4.2303  -4.2303
    -4.1340  -4.1340  -4.1190  -4.1190  -4.1049  -4.1049  -4.0874  -4.0874
    -4.0692  -4.0692  -4.0134  -4.0134   0.4388   0.4388   0.6828   0.6828
     0.7642   0.7642   0.9213   0.9213   0.9585   0.9585   1.2180   1.2180
     1.6638   1.6638   1.7109   1.7109   1.7879   1.7879   1.8891   1.8891
     1.9410   1.9410   1.9714   1.9714   2.3221   2.3221   2.3820   2.3820
     2.3977   2.3977   2.4662   2.4662   2.6475   2.6475   2.7060   2.7060

          k = 0.2504 0.0000 0.0000 ( 48921 PWs)   bands (ev):

   -17.2694 -17.2688 -17.2676 -17.2672 -13.0991 -13.0951 -13.0920 -13.0911
   -13.0847 -13.0794 -13.0774 -13.0772 -13.0428 -13.0426 -13.0422 -13.0420
   -13.0402 -13.0401 -13.0398 -13.0396 -13.0337 -13.0333 -13.0332 -13.0329
    -8.7468  -8.5425  -8.4707  -8.2961  -8.2874  -8.2866  -8.2557  -8.2329
    -8.1620  -8.0894  -8.0744  -8.0635  -4.8557  -4.3563  -4.2179  -4.1354
    -4.1327  -4.1271  -4.1234  -4.1168  -4.1154  -4.0976  -4.0927  -4.0822
    -4.0743  -4.0497  -4.0045  -3.6414   0.0174   0.1774   0.1832   0.3198
     0.3298   0.4705   1.1361   1.1817   1.3082   1.3747   1.4967   1.4968
     1.5013   1.6005   1.8238   1.8415   1.9798   1.9876   2.0209   2.0281
     2.1156   2.1188   2.1670   2.1976   2.2079   2.2272   2.2421   2.3601
     2.3697   2.3980   2.4455   2.5056   2.6144   2.6762   2.7078   3.0515

          k = 0.2504 0.0000 0.2262 ( 48983 PWs)   bands (ev):

   -17.2692 -17.2690 -17.2675 -17.2673 -13.0955 -13.0929 -13.0921 -13.0896
   -13.0883 -13.0830 -13.0774 -13.0773 -13.0427 -13.0425 -13.0424 -13.0422
   -13.0402 -13.0402 -13.0397 -13.0397 -13.0336 -13.0334 -13.0332 -13.0330
    -8.7114  -8.6180  -8.4438  -8.3734  -8.2513  -8.2408  -8.2151  -8.2121
    -8.1743  -8.1056  -8.0850  -8.0775  -4.7389  -4.4867  -4.1496  -4.1430
    -4.1389  -4.1294  -4.1099  -4.1081  -4.1022  -4.0971  -4.0898  -4.0778
    -4.0740  -4.0711  -3.9899  -3.7933   0.2090   0.2550   0.3138   0.4178
     0.4650   0.5457   1.1032   1.1488   1.2154   1.3379   1.3843   1.3865
     1.5735   1.6129   1.6328   1.7847   1.9225   1.9322   2.0253   2.0351
     2.0618   2.0734   2.1509   2.1875   2.2392   2.2448   2.3025   2.3592
     2.3795   2.3890   2.4162   2.4739   2.5748   2.5957   2.6826   2.7642

          k = 0.2504 0.2338 0.0000 ( 48919 PWs)   bands (ev):

   -17.2691 -17.2686 -17.2678 -17.2674 -13.0993 -13.0959 -13.0911 -13.0886
   -13.0840 -13.0814 -13.0790 -13.0768 -13.0428 -13.0426 -13.0422 -13.0420
   -13.0402 -13.0400 -13.0398 -13.0397 -13.0336 -13.0333 -13.0333 -13.0330
    -8.7126  -8.5139  -8.5027  -8.2960  -8.2928  -8.2865  -8.2696  -8.2558
    -8.1473  -8.1066  -8.1027  -8.0416  -4.7545  -4.3071  -4.2864  -4.1328
    -4.1253  -4.1243  -4.1237  -4.1133  -4.1042  -4.0913  -4.0880  -4.0864
    -4.0829  -4.0353  -4.0205  -3.7309   0.0349   0.0960   0.1458   0.2476
     0.7002   0.8127   0.8527   1.0292   1.2553   1.2630   1.2862   1.5371
     1.5585   1.6999   1.7906   1.9125   1.9504   1.9735   2.0451   2.0527
     2.0713   2.1089   2.1261   2.1353   2.2106   2.2743   2.3170   2.3171
     2.3323   2.3545   2.4363   2.4731   2.5970   2.7049   2.7455   3.0543

          k = 0.2504 0.2338 0.2262 ( 48969 PWs)   bands (ev):

   -17.2690 -17.2687 -17.2677 -17.2675 -13.0961 -13.0925 -13.0919 -13.0879
   -13.0867 -13.0841 -13.0788 -13.0780 -13.0426 -13.0425 -13.0423 -13.0422
   -13.0401 -13.0401 -13.0398 -13.0397 -13.0335 -13.0333 -13.0332 -13.0331
    -8.6769  -8.5821  -8.4820  -8.3962  -8.2725  -8.2679  -8.2177  -8.1826
    -8.1543  -8.1226  -8.1025  -8.0703  -4.6429  -4.4038  -4.2172  -4.1338
    -4.1325  -4.1278  -4.1176  -4.1061  -4.1018  -4.0962  -4.0897  -4.0845
    -4.0758  -4.0555  -4.0259  -3.8719   0.1271   0.1900   0.3984   0.5083
     0.7509   0.7675   0.8907   0.9544   1.1306   1.2415   1.3026   1.3577
     1.5656   1.6710   1.7004   1.7976   1.8577   1.9079   1.9235   1.9616
     2.0647   2.0915   2.1755   2.2063   2.2527   2.3003   2.3138   2.3380
     2.3628   2.3786   2.4286   2.4494   2.5799   2.6089   2.6876   2.7911

          k = 0.2504-0.4675 0.0000 ( 48942 PWs)   bands (ev):

   -17.2685 -17.2685 -17.2680 -17.2680 -13.0981 -13.0981 -13.0879 -13.0879
   -13.0833 -13.0833 -13.0787 -13.0787 -13.0427 -13.0427 -13.0421 -13.0421
   -13.0400 -13.0400 -13.0399 -13.0399 -13.0334 -13.0334 -13.0331 -13.0331
    -8.6209  -8.6209  -8.4000  -8.4000  -8.2947  -8.2947  -8.2248  -8.2248
    -8.1828  -8.1828  -8.0506  -8.0506  -4.5217  -4.5217  -4.1562  -4.1562
    -4.1283  -4.1283  -4.1094  -4.1094  -4.1026  -4.1026  -4.0894  -4.0894
    -4.0755  -4.0755  -3.9126  -3.9126   0.0856   0.0856   0.3341   0.3341
     0.4853   0.4853   1.1556   1.1556   1.2314   1.2314   1.3546   1.3546
     1.6300   1.6300   1.8386   1.8386   1.9488   1.9488   2.0289   2.0289
     2.1100   2.1100   2.2037   2.2037   2.2083   2.2083   2.2693   2.2693
     2.3308   2.3308   2.3870   2.3870   2.6399   2.6399   2.8709   2.8709

          k = 0.2504-0.4675 0.2262 ( 48988 PWs)   bands (ev):

   -17.2684 -17.2684 -17.2681 -17.2681 -13.0949 -13.0949 -13.0896 -13.0896
   -13.0829 -13.0829 -13.0808 -13.0808 -13.0426 -13.0426 -13.0423 -13.0423
   -13.0400 -13.0400 -13.0399 -13.0399 -13.0334 -13.0334 -13.0332 -13.0332
    -8.5855  -8.5855  -8.4900  -8.4900  -8.2425  -8.2425  -8.2265  -8.2265
    -8.1495  -8.1495  -8.0793  -8.0793  -4.4190  -4.4190  -4.2188  -4.2188
    -4.1277  -4.1277  -4.1180  -4.1180  -4.0951  -4.0951  -4.0861  -4.0861
    -4.0664  -4.0664  -4.0023  -4.0023   0.3443   0.3443   0.4131   0.4131
     0.5038   0.5038   1.1545   1.1545   1.2025   1.2025   1.2259   1.2259
     1.5594   1.5594   1.7540   1.7540   1.8823   1.8823   1.9847   1.9847
     2.0786   2.0786   2.1127   2.1127   2.2993   2.2993   2.3264   2.3264
     2.3682   2.3682   2.4078   2.4078   2.6178   2.6178   2.6564   2.6564

          k =-0.5008 0.0000 0.0000 ( 48876 PWs)   bands (ev):

   -17.2689 -17.2689 -17.2676 -17.2676 -13.0969 -13.0969 -13.0853 -13.0853
   -13.0845 -13.0845 -13.0813 -13.0813 -13.0427 -13.0427 -13.0421 -13.0421
   -13.0400 -13.0400 -13.0399 -13.0399 -13.0335 -13.0335 -13.0331 -13.0331
    -8.6309  -8.6309  -8.4227  -8.4227  -8.2933  -8.2933  -8.1768  -8.1768
    -8.1545  -8.1545  -8.0915  -8.0915  -4.5358  -4.5358  -4.1696  -4.1696
    -4.1278  -4.1278  -4.1082  -4.1082  -4.0846  -4.0846  -4.0776  -4.0776
    -4.0624  -4.0624  -3.9619  -3.9619   0.0954   0.0954   0.5905   0.5905
     0.8049   0.8049   0.9173   0.9173   1.1214   1.1214   1.2606   1.2606
     1.5912   1.5912   1.8126   1.8126   1.9151   1.9151   2.0301   2.0301
     2.0550   2.0550   2.2017   2.2017   2.2228   2.2228   2.2735   2.2735
     2.3616   2.3616   2.4411   2.4411   2.4945   2.4945   2.7580   2.7580

          k =-0.5008 0.0000 0.2262 ( 48902 PWs)   bands (ev):

   -17.2688 -17.2688 -17.2677 -17.2677 -13.0933 -13.0933 -13.0867 -13.0867
   -13.0844 -13.0844 -13.0836 -13.0836 -13.0426 -13.0426 -13.0423 -13.0423
   -13.0400 -13.0400 -13.0399 -13.0399 -13.0334 -13.0334 -13.0332 -13.0332
    -8.5971  -8.5971  -8.5062  -8.5062  -8.2136  -8.2136  -8.1778  -8.1778
    -8.1539  -8.1539  -8.1206  -8.1206  -4.4271  -4.4271  -4.2128  -4.2128
    -4.1305  -4.1305  -4.1198  -4.1198  -4.0922  -4.0922  -4.0792  -4.0792
    -4.0591  -4.0591  -4.0442  -4.0442   0.4397   0.4397   0.6343   0.6343
     0.7453   0.7453   0.9347   0.9347   1.0330   1.0330   1.1661   1.1661
     1.6745   1.6745   1.8216   1.8216   1.8408   1.8408   1.9459   1.9459
     1.9616   1.9616   2.0726   2.0726   2.2983   2.2983   2.3238   2.3238
     2.3719   2.3719   2.4246   2.4246   2.4952   2.4952   2.5354   2.5354

          k =-0.5008 0.2338 0.0000 ( 48934 PWs)   bands (ev):

   -17.2687 -17.2687 -17.2677 -17.2677 -13.0981 -13.0981 -13.0879 -13.0879
   -13.0834 -13.0834 -13.0787 -13.0787 -13.0427 -13.0427 -13.0421 -13.0421
   -13.0400 -13.0400 -13.0399 -13.0399 -13.0334 -13.0334 -13.0331 -13.0331
    -8.6142  -8.6142  -8.3872  -8.3872  -8.2966  -8.2966  -8.2333  -8.2333
    -8.1971  -8.1971  -8.0513  -8.0513  -4.5166  -4.5166  -4.1579  -4.1579
    -4.1164  -4.1164  -4.1158  -4.1158  -4.0954  -4.0954  -4.0847  -4.0847
    -4.0690  -4.0690  -3.9235  -3.9235   0.0848   0.0848   0.3229   0.3229
     0.4952   0.4952   1.1149   1.1149   1.2419   1.2419   1.4264   1.4264
     1.6435   1.6435   1.8573   1.8573   1.9781   1.9781   2.0557   2.0557
     2.0779   2.0779   2.1801   2.1801   2.1989   2.1989   2.2534   2.2534
     2.3016   2.3016   2.3879   2.3879   2.5982   2.5982   2.8298   2.8298

          k =-0.5008 0.2338 0.2262 ( 48884 PWs)   bands (ev):

   -17.2687 -17.2687 -17.2678 -17.2678 -13.0948 -13.0948 -13.0896 -13.0896
   -13.0829 -13.0829 -13.0808 -13.0808 -13.0426 -13.0426 -13.0423 -13.0423
   -13.0400 -13.0400 -13.0399 -13.0399 -13.0334 -13.0334 -13.0332 -13.0332
    -8.5785  -8.5785  -8.4819  -8.4819  -8.2496  -8.2496  -8.2304  -8.2304
    -8.1577  -8.1577  -8.0810  -8.0810  -4.4128  -4.4128  -4.2116  -4.2116
    -4.1200  -4.1200  -4.1131  -4.1131  -4.1018  -4.1018  -4.0833  -4.0833
    -4.0596  -4.0596  -4.0148  -4.0148   0.3455   0.3455   0.4024   0.4024
     0.5045   0.5045   1.0929   1.0929   1.2295   1.2295   1.2694   1.2694
     1.5912   1.5912   1.7842   1.7842   1.8930   1.8930   2.0484   2.0484
     2.1044   2.1044   2.1498   2.1498   2.2486   2.2486   2.2772   2.2772
     2.3175   2.3175   2.4038   2.4038   2.5656   2.5656   2.5921   2.5921

          k =-0.5008-0.4675 0.0000 ( 48992 PWs)   bands (ev):

   -17.2685 -17.2685 -17.2680 -17.2680 -13.0991 -13.0991 -13.0895 -13.0895
   -13.0824 -13.0824 -13.0772 -13.0772 -13.0427 -13.0427 -13.0421 -13.0421
   -13.0400 -13.0400 -13.0399 -13.0399 -13.0334 -13.0334 -13.0331 -13.0331
    -8.5946  -8.5946  -8.3085  -8.3085  -8.3078  -8.3078  -8.2827  -8.2827
    -8.2681  -8.2681  -8.0280  -8.0280  -4.4977  -4.4977  -4.1400  -4.1400
    -4.1234  -4.1234  -4.1117  -4.1117  -4.0961  -4.0961  -4.0875  -4.0875
    -4.0830  -4.0830  -3.8913  -3.8913   0.0714   0.0714   0.1620   0.1620
     0.3250   0.3250   1.1565   1.1565   1.2883   1.2883   1.6227   1.6227
     1.6550   1.6550   1.9157   1.9157   1.9505   1.9505   2.0241   2.0241
     2.1172   2.1172   2.1658   2.1658   2.2034   2.2034   2.2250   2.2250
     2.2590   2.2590   2.4245   2.4245   2.6828   2.6828   2.9411   2.9411

          k =-0.5008-0.4675 0.2262 ( 48964 PWs)   bands (ev):

   -17.2684 -17.2684 -17.2681 -17.2681 -13.0961 -13.0961 -13.0912 -13.0912
   -13.0817 -13.0817 -13.0792 -13.0792 -13.0426 -13.0426 -13.0423 -13.0423
   -13.0400 -13.0400 -13.0399 -13.0399 -13.0334 -13.0334 -13.0332 -13.0332
    -8.5562  -8.5562  -8.4498  -8.4498  -8.2824  -8.2824  -8.2818  -8.2818
    -8.1577  -8.1577  -8.0612  -8.0612  -4.3986  -4.3986  -4.2085  -4.2085
    -4.1202  -4.1202  -4.1183  -4.1183  -4.0849  -4.0849  -4.0748  -4.0748
    -4.0738  -4.0738  -3.9895  -3.9895   0.1946   0.1946   0.2533   0.2533
     0.4720   0.4720   1.1798   1.1798   1.2238   1.2238   1.3438   1.3438
     1.6201   1.6201   1.7651   1.7651   2.0250   2.0250   2.0597   2.0597
     2.1276   2.1276   2.1277   2.1277   2.2179   2.2179   2.2238   2.2238
     2.3358   2.3358   2.4232   2.4232   2.6531   2.6531   2.7125   2.7125

     highest occupied level (ev):     3.4144

!    total energy              =   -8165.86065885 Ry
     estimated scf accuracy    <          4.6E-12 Ry

     The total energy is the sum of the following terms:
     one-electron contribution =    -325.77208665 Ry
     hartree contribution      =     251.60443524 Ry
     xc contribution           =    -792.77371117 Ry
     ewald contribution        =    -649.30015788 Ry
     one-center paw contrib.   =   -6649.61913839 Ry

     convergence has been achieved in  20 iterations

     Forces acting on atoms (cartesian axes, Ry/au):

     atom    1 type  1   force =     0.00002429    0.00011423    0.00000000
     atom    2 type  1   force =    -0.00002429   -0.00011423    0.00000000
     atom    3 type  1   force =     0.00002429   -0.00011423    0.00000000
     atom    4 type  1   force =    -0.00002429    0.00011423    0.00000000
     atom    5 type  2   force =     0.00000000    0.00000000   -0.00000000
     atom    6 type  2   force =    -0.00000000    0.00000000    0.00000000
     atom    7 type  2   force =     0.00000000   -0.00000000    0.00000000
     atom    8 type  2   force =     0.00000000    0.00000000    0.00000000
     atom    9 type  3   force =    -0.00008142   -0.00010287    0.00000000
     atom   10 type  3   force =     0.00008142    0.00010287    0.00000000
     atom   11 type  3   force =    -0.00008142    0.00010287    0.00000000
     atom   12 type  3   force =     0.00008142   -0.00010287    0.00000000
     atom   13 type  3   force =     0.00000957    0.00009379    0.00002412
     atom   14 type  3   force =    -0.00000957   -0.00009379    0.00002412
     atom   15 type  3   force =     0.00000957   -0.00009379   -0.00002412
     atom   16 type  3   force =    -0.00000957    0.00009379   -0.00002412
     atom   17 type  3   force =    -0.00000957   -0.00009379   -0.00002412
     atom   18 type  3   force =     0.00000957    0.00009379   -0.00002412
     atom   19 type  3   force =    -0.00000957    0.00009379    0.00002412
     atom   20 type  3   force =     0.00000957   -0.00009379    0.00002412

     Total force =     0.000446     Total SCF correction =     0.000001


     Computing stress (Cartesian axis) and pressure

          total   stress  (Ry/bohr**3)                   (kbar)     P=       -0.07
  -0.00000139   0.00000000   0.00000000           -0.20        0.00        0.00
   0.00000000  -0.00000125   0.00000000            0.00       -0.18        0.00
   0.00000000   0.00000000   0.00000114            0.00        0.00        0.17


     number of scf cycles    =  13
     number of bfgs steps    =  12

     enthalpy old            =   -8165.8606480389 Ry
     enthalpy new            =   -8165.8606588511 Ry

     CASE: enthalpy_new < enthalpy_old

     new trust radius        =       0.0068443021 bohr
     new conv_thr            =            1.0E-11 Ry

     new unit-cell volume =   6244.69685 a.u.^3 (   925.36860 Ang^3 )
     density =      5.17392 g/cm^3

CELL_PARAMETERS (angstrom)
   8.362949530   0.000000000   0.000000000
   0.000000000   8.960959867   0.000000000
   0.000000000   0.000000000  12.348117424

ATOMIC_POSITIONS (angstrom)
Cs            3.9141823165        3.7287125035        3.0870293561
Cs            4.4487672134        5.2322473632        9.2610880682
Cs           -0.2672924484        0.7517674298        9.2610880682
Cs            8.6302419784        8.2091924368        3.0870293561
Pb            4.1814747650        0.0000000000       -0.0000000000
Pb            4.1814747650       -0.0000000000        6.1740587121
Pb            0.0000000000        4.4804799333        0.0000000000
Pb           -0.0000000000        4.4804799333        6.1740587121
I             4.8773113124        0.0576459102        3.0870293561
I             3.4856382176        8.9033139564        9.2610880682
I             0.6958365474        4.4228340231        9.2610880682
I             7.6671129826        4.5381258435        3.0870293561
I             5.7503674722        2.7325451881       11.8503648340
I             2.6125820577        6.2284146785        5.6763061219
I             1.5688927073        1.7479347452        0.4977525903
I             6.7940568227        7.2130251214        6.6718113024
I             2.6125820577        6.2284146785        0.4977525903
I             5.7503674722        2.7325451881        6.6718113024
I             6.7940568227        7.2130251214       11.8503648340
I             1.5688927073        1.7479347452        5.6763061219



     Writing output data file ./tmp/unit_tight.save/
     NEW-OLD atomic charge density approx. for the potential
     extrapolated charge  176.05807, renormalised to  176.00000

     total cpu time spent up to now is     4468.1 secs

     Self-consistent Calculation

     iteration #  1     ecut=    60.00 Ry     beta= 0.30
     Davidson diagonalization with overlap
     ethr =  1.00E-06,  avg # of iterations =  2.0

     Threshold (ethr) on eigenvalues was too large:
     Diagonalizing with lowered threshold

     Davidson diagonalization with overlap
     ethr =  2.05E-08,  avg # of iterations =  4.1

     total cpu time spent up to now is     4499.5 secs

     total energy              =   -8165.86060956 Ry
     estimated scf accuracy    <       0.00006893 Ry

     iteration #  2     ecut=    60.00 Ry     beta= 0.30
     Davidson diagonalization with overlap
     ethr =  3.92E-08,  avg # of iterations =  5.0

     total cpu time spent up to now is     4519.7 secs

     total energy              =   -8165.86066153 Ry
     estimated scf accuracy    <       0.00001687 Ry

     iteration #  3     ecut=    60.00 Ry     beta= 0.30
     Davidson diagonalization with overlap
     ethr =  9.59E-09,  avg # of iterations =  1.1

     total cpu time spent up to now is     4531.7 secs

     total energy              =   -8165.86066020 Ry
     estimated scf accuracy    <       0.00000876 Ry

     iteration #  4     ecut=    60.00 Ry     beta= 0.30
     Davidson diagonalization with overlap
     ethr =  4.98E-09,  avg # of iterations =  2.2

     total cpu time spent up to now is     4545.6 secs

     total energy              =   -8165.86066138 Ry
     estimated scf accuracy    <       0.00000092 Ry

     iteration #  5     ecut=    60.00 Ry     beta= 0.30
     Davidson diagonalization with overlap
     ethr =  5.21E-10,  avg # of iterations =  4.3

     total cpu time spent up to now is     4562.0 secs

     total energy              =   -8165.86066172 Ry
     estimated scf accuracy    <       0.00000030 Ry

     iteration #  6     ecut=    60.00 Ry     beta= 0.30
     Davidson diagonalization with overlap
     ethr =  1.73E-10,  avg # of iterations =  2.4

     total cpu time spent up to now is     4575.0 secs

     total energy              =   -8165.86066188 Ry
     estimated scf accuracy    <       0.00000023 Ry

     iteration #  7     ecut=    60.00 Ry     beta= 0.30
     Davidson diagonalization with overlap
     ethr =  1.28E-10,  avg # of iterations =  2.0

     total cpu time spent up to now is     4589.2 secs

     total energy              =   -8165.86066193 Ry
     estimated scf accuracy    <       0.00000010 Ry

     iteration #  8     ecut=    60.00 Ry     beta= 0.30
     Davidson diagonalization with overlap
     ethr =  5.48E-11,  avg # of iterations =  2.0

     total cpu time spent up to now is     4602.5 secs

     total energy              =   -8165.86066196 Ry
     estimated scf accuracy    <       0.00000006 Ry

     iteration #  9     ecut=    60.00 Ry     beta= 0.30
     Davidson diagonalization with overlap
     ethr =  3.54E-11,  avg # of iterations =  2.0

     total cpu time spent up to now is     4615.5 secs

     total energy              =   -8165.86066196 Ry
     estimated scf accuracy    <       0.00000004 Ry

     iteration # 10     ecut=    60.00 Ry     beta= 0.30
     Davidson diagonalization with overlap
     ethr =  2.53E-11,  avg # of iterations =  1.3

     total cpu time spent up to now is     4627.9 secs

     total energy              =   -8165.86066197 Ry
     estimated scf accuracy    <       0.00000003 Ry

     iteration # 11     ecut=    60.00 Ry     beta= 0.30
     Davidson diagonalization with overlap
     ethr =  1.95E-11,  avg # of iterations =  1.3

     total cpu time spent up to now is     4640.2 secs

     total energy              =   -8165.86066197 Ry
     estimated scf accuracy    <       0.00000001 Ry

     iteration # 12     ecut=    60.00 Ry     beta= 0.30
     Davidson diagonalization with overlap
     ethr =  6.61E-12,  avg # of iterations =  1.9

     total cpu time spent up to now is     4652.9 secs

     total energy              =   -8165.86066197 Ry
     estimated scf accuracy    <          6.4E-09 Ry

     iteration # 13     ecut=    60.00 Ry     beta= 0.30
     Davidson diagonalization with overlap
     ethr =  3.62E-12,  avg # of iterations =  2.4

     total cpu time spent up to now is     4665.9 secs

     total energy              =   -8165.86066197 Ry
     estimated scf accuracy    <          1.4E-09 Ry

     iteration # 14     ecut=    60.00 Ry     beta= 0.30
     Davidson diagonalization with overlap
     ethr =  8.07E-13,  avg # of iterations =  4.4

     total cpu time spent up to now is     4682.2 secs

     total energy              =   -8165.86066197 Ry
     estimated scf accuracy    <          2.0E-10 Ry

     iteration # 15     ecut=    60.00 Ry     beta= 0.30
     Davidson diagonalization with overlap
     ethr =  1.13E-13,  avg # of iterations =  4.5

     total cpu time spent up to now is     4696.9 secs

     total energy              =   -8165.86066197 Ry
     estimated scf accuracy    <          1.6E-10 Ry

     iteration # 16     ecut=    60.00 Ry     beta= 0.30
     Davidson diagonalization with overlap
     ethr =  1.00E-13,  avg # of iterations =  1.0

     total cpu time spent up to now is     4708.9 secs

     total energy              =   -8165.86066197 Ry
     estimated scf accuracy    <          2.1E-10 Ry

     iteration # 17     ecut=    60.00 Ry     beta= 0.30
     Davidson diagonalization with overlap
     ethr =  1.00E-13,  avg # of iterations =  1.0

     total cpu time spent up to now is     4721.0 secs

     total energy              =   -8165.86066197 Ry
     estimated scf accuracy    <          2.2E-10 Ry

     iteration # 18     ecut=    60.00 Ry     beta= 0.30
     Davidson diagonalization with overlap
     ethr =  1.00E-13,  avg # of iterations =  4.0

     total cpu time spent up to now is     4737.7 secs

     total energy              =   -8165.86066197 Ry
     estimated scf accuracy    <          5.5E-11 Ry

     iteration # 19     ecut=    60.00 Ry     beta= 0.30
     Davidson diagonalization with overlap
     ethr =  1.00E-13,  avg # of iterations =  2.0

     total cpu time spent up to now is     4750.7 secs

     total energy              =   -8165.86066197 Ry
     estimated scf accuracy    <          2.2E-10 Ry

     iteration # 20     ecut=    60.00 Ry     beta= 0.30
     Davidson diagonalization with overlap
     ethr =  1.00E-13,  avg # of iterations =  2.0

     total cpu time spent up to now is     4763.7 secs

     total energy              =   -8165.86066197 Ry
     estimated scf accuracy    <          7.1E-11 Ry

     iteration # 21     ecut=    60.00 Ry     beta= 0.30
     Davidson diagonalization with overlap
     ethr =  1.00E-13,  avg # of iterations =  2.0

     total cpu time spent up to now is     4776.4 secs

     End of self-consistent calculation

          k = 0.0000 0.0000 0.0000 ( 49019 PWs)   bands (ev):

   -17.2734 -17.2727 -17.2712 -17.2707 -13.1031 -13.0988 -13.0978 -13.0954
   -13.0887 -13.0815 -13.0774 -13.0773 -13.0459 -13.0457 -13.0453 -13.0450
   -13.0434 -13.0432 -13.0427 -13.0425 -13.0368 -13.0364 -13.0362 -13.0359
    -8.7906  -8.5911  -8.3488  -8.2990  -8.2933  -8.2818  -8.2675  -8.2444
    -8.2274  -8.0583  -8.0577  -8.0433  -4.9891  -4.4669  -4.1437  -4.1387
    -4.1350  -4.1335  -4.1299  -4.1247  -4.1211  -4.1143  -4.1071  -4.0854
    -4.0737  -4.0659  -3.9328  -3.4751  -0.0350   0.0180   0.0508   0.1765
     0.1912   0.2354   1.1021   1.3929   1.4022   1.4153   1.4305   1.4960
     1.7138   1.9051   1.9135   1.9234   2.0049   2.0098   2.0210   2.0513
     2.0529   2.0569   2.0882   2.0923   2.1480   2.3559   2.3684   2.4037
     2.4206   2.4429   2.4672   2.4887   2.6851   2.6888   2.9530   3.4110

          k = 0.0000 0.0000 0.2262 ( 48974 PWs)   bands (ev):

   -17.2732 -17.2729 -17.2711 -17.2708 -13.0995 -13.0982 -13.0979 -13.0923
   -13.0923 -13.0851 -13.0774 -13.0774 -13.0458 -13.0455 -13.0455 -13.0452
   -13.0433 -13.0433 -13.0427 -13.0426 -13.0367 -13.0365 -13.0361 -13.0359
    -8.7553  -8.6629  -8.3334  -8.3014  -8.2854  -8.2740  -8.2414  -8.2318
    -8.2155  -8.1035  -8.0535  -8.0464  -4.8676  -4.6059  -4.1435  -4.1419
    -4.1408  -4.1384  -4.1265  -4.1172  -4.1008  -4.1001  -4.0865  -4.0832
    -4.0823  -4.0753  -3.8724  -3.6343   0.0437   0.0843   0.0865   0.1576
     0.4022   0.6022   1.1010   1.1719   1.2847   1.4489   1.4578   1.5007
     1.5430   1.6537   1.8343   1.9238   1.9281   1.9632   2.0422   2.0539
     2.0660   2.1058   2.1490   2.1504   2.2509   2.2529   2.3098   2.3668
     2.3859   2.4073   2.4466   2.4572   2.6058   2.6647   2.9799   3.1273

          k = 0.0000 0.2337 0.0000 ( 49004 PWs)   bands (ev):

   -17.2731 -17.2724 -17.2715 -17.2710 -13.1021 -13.0981 -13.0949 -13.0941
   -13.0878 -13.0824 -13.0804 -13.0802 -13.0459 -13.0457 -13.0453 -13.0450
   -13.0433 -13.0431 -13.0428 -13.0427 -13.0367 -13.0364 -13.0363 -13.0360
    -8.7524  -8.5500  -8.4897  -8.3227  -8.2969  -8.2866  -8.2188  -8.2008
    -8.1818  -8.0861  -8.0703  -8.0666  -4.8603  -4.3680  -4.2431  -4.1476
    -4.1394  -4.1328  -4.1289  -4.1188  -4.0996  -4.0989  -4.0937  -4.0920
    -4.0842  -4.0472  -4.0124  -3.6418   0.0174   0.1799   0.2107   0.2966
     0.3708   0.3936   1.1668   1.2681   1.2711   1.3476   1.4266   1.4736
     1.4929   1.5947   1.7426   1.8440   1.9705   1.9774   2.0197   2.0372
     2.1037   2.1099   2.1508   2.1532   2.1738   2.2673   2.3244   2.3329
     2.3821   2.4044   2.4524   2.5062   2.6896   2.7143   2.7458   3.1308

          k = 0.0000 0.2337 0.2262 ( 48988 PWs)   bands (ev):

   -17.2729 -17.2726 -17.2714 -17.2711 -13.0985 -13.0959 -13.0950 -13.0926
   -13.0913 -13.0860 -13.0804 -13.0803 -13.0457 -13.0455 -13.0454 -13.0452
   -13.0432 -13.0432 -13.0428 -13.0427 -13.0366 -13.0364 -13.0362 -13.0360
    -8.7171  -8.6243  -8.4631  -8.3935  -8.2319  -8.2193  -8.2140  -8.2022
    -8.1934  -8.1083  -8.0822  -8.0741  -4.7447  -4.4959  -4.1697  -4.1426
    -4.1410  -4.1304  -4.1266  -4.1217  -4.1083  -4.0996  -4.0976  -4.0839
    -4.0794  -4.0673  -3.9872  -3.7893   0.2464   0.2564   0.3242   0.3372
     0.4759   0.5494   1.1249   1.2099   1.2536   1.3013   1.3156   1.4001
     1.5106   1.5975   1.6116   1.8067   1.8200   1.9178   1.9322   2.0116
     2.0294   2.1003   2.1079   2.1298   2.2619   2.3020   2.3537   2.3616
     2.3953   2.3984   2.4255   2.4746   2.6505   2.6863   2.7191   2.8714

          k = 0.0000-0.4674 0.0000 ( 48914 PWs)   bands (ev):

   -17.2723 -17.2723 -17.2717 -17.2717 -13.0999 -13.0999 -13.0883 -13.0883
   -13.0875 -13.0875 -13.0844 -13.0844 -13.0458 -13.0458 -13.0452 -13.0452
   -13.0430 -13.0430 -13.0429 -13.0429 -13.0365 -13.0365 -13.0362 -13.0362
    -8.6447  -8.6447  -8.4432  -8.4432  -8.2924  -8.2924  -8.1537  -8.1537
    -8.1359  -8.1359  -8.1012  -8.1012  -4.5475  -4.5475  -4.1763  -4.1763
    -4.1335  -4.1335  -4.1117  -4.1117  -4.1103  -4.1103  -4.0951  -4.0951
    -4.0741  -4.0741  -3.9384  -3.9384   0.0931   0.0931   0.6390   0.6390
     0.8274   0.8274   0.8985   0.8985   0.9869   0.9869   1.3103   1.3103
     1.6050   1.6050   1.7296   1.7296   1.8392   1.8392   2.0208   2.0208
     2.0879   2.0879   2.1180   2.1180   2.2125   2.2125   2.3391   2.3391
     2.3875   2.3875   2.4444   2.4444   2.6357   2.6357   2.8645   2.8645

          k = 0.0000-0.4674 0.2262 ( 48958 PWs)   bands (ev):

   -17.2721 -17.2721 -17.2719 -17.2719 -13.0963 -13.0963 -13.0897 -13.0897
   -13.0874 -13.0874 -13.0866 -13.0866 -13.0456 -13.0456 -13.0453 -13.0453
   -13.0430 -13.0430 -13.0429 -13.0429 -13.0364 -13.0364 -13.0362 -13.0362
    -8.6111  -8.6111  -8.5216  -8.5216  -8.2170  -8.2170  -8.1513  -8.1513
    -8.1399  -8.1399  -8.1300  -8.1300  -4.4417  -4.4417  -4.2332  -4.2332
    -4.1375  -4.1375  -4.1225  -4.1225  -4.1083  -4.1083  -4.0909  -4.0909
    -4.0728  -4.0728  -4.0171  -4.0171   0.4372   0.4372   0.6806   0.6806
     0.7619   0.7619   0.9187   0.9187   0.9557   0.9557   1.2156   1.2156
     1.6618   1.6618   1.7082   1.7082   1.7853   1.7853   1.8867   1.8867
     1.9392   1.9392   1.9684   1.9684   2.3200   2.3200   2.3789   2.3789
     2.3960   2.3960   2.4634   2.4634   2.6454   2.6454   2.7036   2.7036

          k = 0.2504 0.0000 0.0000 ( 48921 PWs)   bands (ev):

   -17.2731 -17.2726 -17.2713 -17.2709 -13.1021 -13.0981 -13.0950 -13.0941
   -13.0878 -13.0824 -13.0804 -13.0802 -13.0459 -13.0457 -13.0453 -13.0450
   -13.0433 -13.0431 -13.0428 -13.0427 -13.0367 -13.0364 -13.0363 -13.0359
    -8.7488  -8.5450  -8.4725  -8.2981  -8.2896  -8.2887  -8.2581  -8.2355
    -8.1641  -8.0916  -8.0767  -8.0659  -4.8580  -4.3597  -4.2200  -4.1387
    -4.1361  -4.1306  -4.1270  -4.1202  -4.1187  -4.1011  -4.0962  -4.0858
    -4.0779  -4.0534  -4.0080  -3.6445   0.0159   0.1744   0.1821   0.3178
     0.3266   0.4680   1.1346   1.1796   1.3059   1.3725   1.4939   1.4946
     1.4990   1.5984   1.8214   1.8394   1.9771   1.9856   2.0187   2.0256
     2.1131   2.1163   2.1641   2.1948   2.2055   2.2255   2.2405   2.3572
     2.3666   2.3949   2.4430   2.5038   2.6116   2.6741   2.7044   3.0480

          k = 0.2504 0.0000 0.2262 ( 48983 PWs)   bands (ev):

   -17.2730 -17.2727 -17.2712 -17.2710 -13.0985 -13.0959 -13.0950 -13.0926
   -13.0913 -13.0860 -13.0804 -13.0803 -13.0457 -13.0455 -13.0454 -13.0452
   -13.0432 -13.0432 -13.0428 -13.0427 -13.0366 -13.0364 -13.0362 -13.0360
    -8.7135  -8.6202  -8.4458  -8.3755  -8.2538  -8.2433  -8.2173  -8.2143
    -8.1764  -8.1080  -8.0872  -8.0797  -4.7415  -4.4898  -4.1525  -4.1464
    -4.1422  -4.1328  -4.1134  -4.1116  -4.1055  -4.1006  -4.0933  -4.0813
    -4.0776  -4.0747  -3.9930  -3.7961   0.2060   0.2522   0.3115   0.4155
     0.4630   0.5442   1.1010   1.1471   1.2134   1.3360   1.3824   1.3842
     1.5710   1.6103   1.6302   1.7816   1.9208   1.9294   2.0221   2.0331
     2.0598   2.0697   2.1489   2.1851   2.2369   2.2425   2.2992   2.3569
     2.3772   2.3862   2.4134   2.4719   2.5727   2.5930   2.6800   2.7610

          k = 0.2504 0.2337 0.0000 ( 48919 PWs)   bands (ev):

   -17.2729 -17.2723 -17.2716 -17.2712 -13.1023 -13.0989 -13.0941 -13.0916
   -13.0871 -13.0844 -13.0820 -13.0798 -13.0458 -13.0457 -13.0452 -13.0451
   -13.0432 -13.0431 -13.0429 -13.0427 -13.0366 -13.0363 -13.0363 -13.0360
    -8.7147  -8.5158  -8.5052  -8.2982  -8.2948  -8.2890  -8.2717  -8.2580
    -8.1494  -8.1088  -8.1050  -8.0440  -4.7568  -4.3091  -4.2896  -4.1362
    -4.1287  -4.1278  -4.1270  -4.1169  -4.1076  -4.0948  -4.0915  -4.0900
    -4.0864  -4.0390  -4.0243  -3.7342   0.0334   0.0934   0.1442   0.2453
     0.6980   0.8105   0.8499   1.0267   1.2531   1.2611   1.2840   1.5348
     1.5556   1.6981   1.7880   1.9100   1.9482   1.9710   2.0431   2.0503
     2.0693   2.1062   2.1232   2.1329   2.2080   2.2724   2.3140   2.3149
     2.3298   2.3521   2.4337   2.4713   2.5945   2.7025   2.7421   3.0508

          k = 0.2504 0.2337 0.2262 ( 48969 PWs)   bands (ev):

   -17.2727 -17.2725 -17.2715 -17.2713 -13.0991 -13.0955 -13.0949 -13.0909
   -13.0897 -13.0871 -13.0818 -13.0810 -13.0457 -13.0456 -13.0454 -13.0453
   -13.0432 -13.0431 -13.0428 -13.0428 -13.0366 -13.0364 -13.0363 -13.0361
    -8.6790  -8.5843  -8.4840  -8.3983  -8.2748  -8.2703  -8.2199  -8.1849
    -8.1565  -8.1249  -8.1048  -8.0726  -4.6454  -4.4068  -4.2196  -4.1373
    -4.1359  -4.1311  -4.1210  -4.1095  -4.1052  -4.0996  -4.0931  -4.0880
    -4.0794  -4.0591  -4.0293  -3.8749   0.1244   0.1871   0.3966   0.5071
     0.7486   0.7648   0.8884   0.9521   1.1284   1.2394   1.3005   1.3557
     1.5628   1.6686   1.6980   1.7949   1.8549   1.9059   1.9206   1.9592
     2.0622   2.0888   2.1731   2.2041   2.2502   2.2981   2.3114   2.3353
     2.3603   2.3762   2.4261   2.4475   2.5773   2.6063   2.6851   2.7881

          k = 0.2504-0.4674 0.0000 ( 48942 PWs)   bands (ev):

   -17.2723 -17.2723 -17.2717 -17.2717 -13.1011 -13.1011 -13.0909 -13.0909
   -13.0863 -13.0863 -13.0818 -13.0818 -13.0458 -13.0458 -13.0452 -13.0452
   -13.0430 -13.0430 -13.0429 -13.0429 -13.0365 -13.0365 -13.0362 -13.0362
    -8.6229  -8.6229  -8.4025  -8.4025  -8.2968  -8.2968  -8.2269  -8.2269
    -8.1851  -8.1851  -8.0530  -8.0530  -4.5238  -4.5238  -4.1595  -4.1595
    -4.1317  -4.1317  -4.1130  -4.1130  -4.1061  -4.1061  -4.0929  -4.0929
    -4.0791  -4.0791  -3.9162  -3.9162   0.0842   0.0842   0.3316   0.3316
     0.4827   0.4827   1.1534   1.1534   1.2292   1.2292   1.3518   1.3518
     1.6276   1.6276   1.8366   1.8366   1.9464   1.9464   2.0267   2.0267
     2.1071   2.1071   2.2015   2.2015   2.2055   2.2055   2.2674   2.2674
     2.3284   2.3284   2.3851   2.3851   2.6374   2.6374   2.8675   2.8675

          k = 0.2504-0.4674 0.2262 ( 48988 PWs)   bands (ev):

   -17.2721 -17.2721 -17.2719 -17.2719 -13.0978 -13.0978 -13.0926 -13.0926
   -13.0859 -13.0859 -13.0838 -13.0838 -13.0456 -13.0456 -13.0453 -13.0453
   -13.0430 -13.0430 -13.0429 -13.0429 -13.0364 -13.0364 -13.0362 -13.0362
    -8.5875  -8.5875  -8.4922  -8.4922  -8.2448  -8.2448  -8.2287  -8.2287
    -8.1518  -8.1518  -8.0816  -8.0816  -4.4213  -4.4213  -4.2217  -4.2217
    -4.1311  -4.1311  -4.1215  -4.1215  -4.0985  -4.0985  -4.0896  -4.0896
    -4.0700  -4.0700  -4.0058  -4.0058   0.3419   0.3419   0.4101   0.4101
     0.5026   0.5026   1.1522   1.1522   1.2005   1.2005   1.2237   1.2237
     1.5565   1.5565   1.7515   1.7515   1.8796   1.8796   1.9820   1.9820
     2.0766   2.0766   2.1107   2.1107   2.2974   2.2974   2.3235   2.3235
     2.3664   2.3664   2.4052   2.4052   2.6151   2.6151   2.6534   2.6534

          k =-0.5009 0.0000 0.0000 ( 48876 PWs)   bands (ev):

   -17.2726 -17.2726 -17.2714 -17.2714 -13.0999 -13.0999 -13.0883 -13.0883
   -13.0875 -13.0875 -13.0843 -13.0843 -13.0458 -13.0458 -13.0452 -13.0452
   -13.0430 -13.0430 -13.0429 -13.0429 -13.0365 -13.0365 -13.0362 -13.0362
    -8.6328  -8.6328  -8.4250  -8.4250  -8.2953  -8.2953  -8.1790  -8.1790
    -8.1569  -8.1569  -8.0938  -8.0938  -4.5379  -4.5379  -4.1729  -4.1729
    -4.1311  -4.1311  -4.1118  -4.1118  -4.0881  -4.0881  -4.0810  -4.0810
    -4.0660  -4.0660  -3.9653  -3.9653   0.0941   0.0941   0.5880   0.5880
     0.8019   0.8019   0.9154   0.9154   1.1193   1.1193   1.2582   1.2582
     1.5893   1.5893   1.8104   1.8104   1.9126   1.9126   2.0284   2.0284
     2.0524   2.0524   2.1987   2.1987   2.2209   2.2209   2.2705   2.2705
     2.3590   2.3590   2.4387   2.4387   2.4915   2.4915   2.7541   2.7541

          k =-0.5009 0.0000 0.2262 ( 48902 PWs)   bands (ev):

   -17.2726 -17.2726 -17.2714 -17.2714 -13.0963 -13.0963 -13.0898 -13.0898
   -13.0874 -13.0874 -13.0866 -13.0866 -13.0456 -13.0456 -13.0453 -13.0453
   -13.0430 -13.0430 -13.0429 -13.0429 -13.0364 -13.0364 -13.0362 -13.0362
    -8.5991  -8.5991  -8.5084  -8.5084  -8.2158  -8.2158  -8.1801  -8.1801
    -8.1564  -8.1564  -8.1229  -8.1229  -4.4294  -4.4294  -4.2158  -4.2158
    -4.1338  -4.1338  -4.1233  -4.1233  -4.0957  -4.0957  -4.0826  -4.0826
    -4.0627  -4.0627  -4.0476  -4.0476   0.4381   0.4381   0.6317   0.6317
     0.7425   0.7425   0.9328   0.9328   1.0313   1.0313   1.1637   1.1637
     1.6725   1.6725   1.8192   1.8192   1.8383   1.8383   1.9439   1.9439
     1.9600   1.9600   2.0687   2.0687   2.2953   2.2953   2.3209   2.3209
     2.3698   2.3698   2.4223   2.4223   2.4921   2.4921   2.5323   2.5323

          k =-0.5009 0.2337 0.0000 ( 48934 PWs)   bands (ev):

   -17.2725 -17.2725 -17.2715 -17.2715 -13.1010 -13.1010 -13.0909 -13.0909
   -13.0863 -13.0863 -13.0817 -13.0817 -13.0458 -13.0458 -13.0452 -13.0452
   -13.0430 -13.0430 -13.0429 -13.0429 -13.0365 -13.0365 -13.0362 -13.0362
    -8.6161  -8.6161  -8.3895  -8.3895  -8.2987  -8.2987  -8.2355  -8.2355
    -8.1995  -8.1995  -8.0537  -8.0537  -4.5187  -4.5187  -4.1612  -4.1612
    -4.1199  -4.1199  -4.1192  -4.1192  -4.0989  -4.0989  -4.0882  -4.0882
    -4.0726  -4.0726  -3.9270  -3.9270   0.0833   0.0833   0.3203   0.3203
     0.4926   0.4926   1.1130   1.1130   1.2397   1.2397   1.4240   1.4240
     1.6412   1.6412   1.8552   1.8552   1.9754   1.9754   2.0533   2.0533
     2.0758   2.0758   2.1773   2.1773   2.1965   2.1965   2.2507   2.2507
     2.2993   2.2993   2.3855   2.3855   2.5955   2.5955   2.8260   2.8260

          k =-0.5009 0.2337 0.2262 ( 48884 PWs)   bands (ev):

   -17.2724 -17.2724 -17.2716 -17.2716 -13.0978 -13.0978 -13.0926 -13.0926
   -13.0859 -13.0859 -13.0838 -13.0838 -13.0456 -13.0456 -13.0453 -13.0453
   -13.0430 -13.0430 -13.0429 -13.0429 -13.0364 -13.0364 -13.0362 -13.0362
    -8.5805  -8.5805  -8.4840  -8.4840  -8.2520  -8.2520  -8.2325  -8.2325
    -8.1601  -8.1601  -8.0834  -8.0834  -4.4151  -4.4151  -4.2146  -4.2146
    -4.1235  -4.1235  -4.1165  -4.1165  -4.1052  -4.1052  -4.0868  -4.0868
    -4.0631  -4.0631  -4.0182  -4.0182   0.3430   0.3430   0.3994   0.3994
     0.5031   0.5031   1.0909   1.0909   1.2275   1.2275   1.2674   1.2674
     1.5887   1.5887   1.7816   1.7816   1.8905   1.8905   2.0460   2.0460
     2.1022   2.1022   2.1473   2.1473   2.2453   2.2453   2.2746   2.2746
     2.3153   2.3153   2.4016   2.4016   2.5628   2.5628   2.5889   2.5889

          k =-0.5009-0.4674 0.0000 ( 48992 PWs)   bands (ev):

   -17.2722 -17.2722 -17.2717 -17.2717 -13.1021 -13.1021 -13.0925 -13.0925
   -13.0853 -13.0853 -13.0802 -13.0802 -13.0458 -13.0458 -13.0452 -13.0452
   -13.0430 -13.0430 -13.0429 -13.0429 -13.0365 -13.0365 -13.0361 -13.0361
    -8.5965  -8.5965  -8.3109  -8.3109  -8.3101  -8.3101  -8.2850  -8.2850
    -8.2701  -8.2701  -8.0304  -8.0304  -4.4998  -4.4998  -4.1433  -4.1433
    -4.1267  -4.1267  -4.1152  -4.1152  -4.0995  -4.0995  -4.0910  -4.0910
    -4.0865  -4.0865  -3.8948  -3.8948   0.0697   0.0697   0.1595   0.1595
     0.3227   0.3227   1.1544   1.1544   1.2863   1.2863   1.6201   1.6201
     1.6524   1.6524   1.9133   1.9133   1.9478   1.9478   2.0227   2.0227
     2.1145   2.1145   2.1633   2.1633   2.2009   2.2009   2.2224   2.2224
     2.2563   2.2563   2.4226   2.4226   2.6803   2.6803   2.9376   2.9376

          k =-0.5009-0.4674 0.2262 ( 48964 PWs)   bands (ev):

   -17.2721 -17.2721 -17.2718 -17.2718 -13.0991 -13.0991 -13.0942 -13.0942
   -13.0846 -13.0846 -13.0822 -13.0822 -13.0456 -13.0456 -13.0453 -13.0453
   -13.0430 -13.0430 -13.0429 -13.0429 -13.0364 -13.0364 -13.0362 -13.0362
    -8.5581  -8.5581  -8.4518  -8.4518  -8.2847  -8.2847  -8.2841  -8.2841
    -8.1600  -8.1600  -8.0636  -8.0636  -4.4009  -4.4009  -4.2114  -4.2114
    -4.1237  -4.1237  -4.1218  -4.1218  -4.0884  -4.0884  -4.0784  -4.0784
    -4.0772  -4.0772  -3.9930  -3.9930   0.1919   0.1919   0.2501   0.2501
     0.4709   0.4709   1.1778   1.1778   1.2217   1.2217   1.3419   1.3419
     1.6175   1.6175   1.7620   1.7620   2.0222   2.0222   2.0576   2.0576
     2.1253   2.1253   2.1254   2.1254   2.2155   2.2155   2.2213   2.2213
     2.3332   2.3332   2.4211   2.4211   2.6504   2.6504   2.7094   2.7094

     highest occupied level (ev):     3.4110

!    total energy              =   -8165.86066197 Ry
     estimated scf accuracy    <          5.7E-12 Ry

     The total energy is the sum of the following terms:
     one-electron contribution =    -325.92032521 Ry
     hartree contribution      =     251.65962705 Ry
     xc contribution           =    -792.77187790 Ry
     ewald contribution        =    -649.20900363 Ry
     one-center paw contrib.   =   -6649.61908228 Ry

     convergence has been achieved in  21 iterations

     Forces acting on atoms (cartesian axes, Ry/au):

     atom    1 type  1   force =    -0.00002444    0.00015317    0.00000000
     atom    2 type  1   force =     0.00002444   -0.00015317    0.00000000
     atom    3 type  1   force =    -0.00002444   -0.00015317    0.00000000
     atom    4 type  1   force =     0.00002444    0.00015317    0.00000000
     atom    5 type  2   force =     0.00000000   -0.00000000    0.00000000
     atom    6 type  2   force =     0.00000000    0.00000000    0.00000000
     atom    7 type  2   force =     0.00000000    0.00000000    0.00000000
     atom    8 type  2   force =     0.00000000   -0.00000000    0.00000000
     atom    9 type  3   force =    -0.00009607   -0.00009617   -0.00000000
     atom   10 type  3   force =     0.00009607    0.00009617   -0.00000000
     atom   11 type  3   force =    -0.00009607    0.00009617    0.00000000
     atom   12 type  3   force =     0.00009607   -0.00009617    0.00000000
     atom   13 type  3   force =     0.00003639    0.00016591    0.00001348
     atom   14 type  3   force =    -0.00003639   -0.00016591    0.00001348
     atom   15 type  3   force =     0.00003639   -0.00016591   -0.00001348
     atom   16 type  3   force =    -0.00003639    0.00016591   -0.00001348
     atom   17 type  3   force =    -0.00003639   -0.00016591   -0.00001348
     atom   18 type  3   force =     0.00003639    0.00016591   -0.00001348
     atom   19 type  3   force =    -0.00003639    0.00016591    0.00001348
     atom   20 type  3   force =     0.00003639   -0.00016591    0.00001348

     Total force =     0.000634     Total SCF correction =     0.000000


     Computing stress (Cartesian axis) and pressure

          total   stress  (Ry/bohr**3)                   (kbar)     P=       -0.13
  -0.00000142   0.00000000   0.00000000           -0.21        0.00        0.00
   0.00000000  -0.00000136   0.00000000            0.00       -0.20        0.00
   0.00000000   0.00000000   0.00000019            0.00        0.00        0.03


     number of scf cycles    =  14
     number of bfgs steps    =  13

     enthalpy old            =   -8165.8606588511 Ry
     enthalpy new            =   -8165.8606619735 Ry

     CASE: enthalpy_new < enthalpy_old

     new trust radius        =       0.0028267611 bohr
     new conv_thr            =            1.0E-11 Ry

     new unit-cell volume =   6244.95633 a.u.^3 (   925.40705 Ang^3 )
     density =      5.17370 g/cm^3

CELL_PARAMETERS (angstrom)
   8.362020400   0.000000000   0.000000000
   0.000000000   8.960725258   0.000000000
   0.000000000   0.000000000  12.350325959

ATOMIC_POSITIONS (angstrom)
Cs            3.9140556090        3.7286047725        3.0875814897
Cs            4.4479647915        5.2321204856        9.2627444691
Cs           -0.2669545912        0.7517578566        9.2627444691
Cs            8.6289749917        8.2089674016        3.0875814897
Pb            4.1810102002       -0.0000000000       -0.0000000000
Pb            4.1810102002        0.0000000000        6.1751629794
Pb            0.0000000000        4.4803626291        0.0000000000
Pb           -0.0000000000        4.4803626291        6.1751629794
I             4.8762792965        0.0573287137        3.0875814897
I             3.4857411040        8.9033965444        9.2627444691
I             0.6952690962        4.4230339154        9.2627444691
I             7.6667513042        4.5376913428        3.0875814897
I             5.7496540310        2.7323993981       11.8525496849
I             2.6123663694        6.2283258601        5.6773867055
I             1.5686438308        1.7479632310        0.4977762739
I             6.7933765697        7.2127620272        6.6729392533
I             2.6123663694        6.2283258601        0.4977762739
I             5.7496540310        2.7323993981        6.6729392533
I             6.7933765697        7.2127620272       11.8525496849
I             1.5686438308        1.7479632310        5.6773867055



     Writing output data file ./tmp/unit_tight.save/
     NEW-OLD atomic charge density approx. for the potential
     extrapolated charge  176.00731, renormalised to  176.00000

     total cpu time spent up to now is     4865.9 secs

     Self-consistent Calculation

     iteration #  1     ecut=    60.00 Ry     beta= 0.30
     Davidson diagonalization with overlap
     ethr =  1.00E-06,  avg # of iterations =  2.0

     Threshold (ethr) on eigenvalues was too large:
     Diagonalizing with lowered threshold

     Davidson diagonalization with overlap
     ethr =  4.21E-10,  avg # of iterations =  5.6

     total cpu time spent up to now is     4900.2 secs

     total energy              =   -8165.86066240 Ry
     estimated scf accuracy    <       0.00000111 Ry

     iteration #  2     ecut=    60.00 Ry     beta= 0.30
     Davidson diagonalization with overlap
     ethr =  6.32E-10,  avg # of iterations =  5.0

     total cpu time spent up to now is     4920.4 secs

     total energy              =   -8165.86066332 Ry
     estimated scf accuracy    <       0.00000029 Ry

     iteration #  3     ecut=    60.00 Ry     beta= 0.30
     Davidson diagonalization with overlap
     ethr =  1.64E-10,  avg # of iterations =  1.1

     total cpu time spent up to now is     4932.6 secs

     total energy              =   -8165.86066334 Ry
     estimated scf accuracy    <       0.00000015 Ry

     iteration #  4     ecut=    60.00 Ry     beta= 0.30
     Davidson diagonalization with overlap
     ethr =  8.50E-11,  avg # of iterations =  3.7

     total cpu time spent up to now is     4948.1 secs

     total energy              =   -8165.86066340 Ry
     estimated scf accuracy    <          7.3E-09 Ry

     iteration #  5     ecut=    60.00 Ry     beta= 0.30
     Davidson diagonalization with overlap
     ethr =  4.14E-12,  avg # of iterations =  5.1

     total cpu time spent up to now is     4966.8 secs

     total energy              =   -8165.86066341 Ry
     estimated scf accuracy    <          9.1E-09 Ry

     iteration #  6     ecut=    60.00 Ry     beta= 0.30
     Davidson diagonalization with overlap
     ethr =  4.14E-12,  avg # of iterations =  2.0

     total cpu time spent up to now is     4979.7 secs

     total energy              =   -8165.86066342 Ry
     estimated scf accuracy    <          3.1E-09 Ry

     iteration #  7     ecut=    60.00 Ry     beta= 0.30
     Davidson diagonalization with overlap
     ethr =  1.77E-12,  avg # of iterations =  5.0

     total cpu time spent up to now is     4998.6 secs

     total energy              =   -8165.86066342 Ry
     estimated scf accuracy    <          3.5E-09 Ry

     iteration #  8     ecut=    60.00 Ry     beta= 0.30
     Davidson diagonalization with overlap
     ethr =  1.77E-12,  avg # of iterations =  2.0

     total cpu time spent up to now is     5011.5 secs

     total energy              =   -8165.86066343 Ry
     estimated scf accuracy    <          5.0E-09 Ry

     iteration #  9     ecut=    60.00 Ry     beta= 0.30
     Davidson diagonalization with overlap
     ethr =  1.77E-12,  avg # of iterations =  2.6

     total cpu time spent up to now is     5025.8 secs

     total energy              =   -8165.86066343 Ry
     estimated scf accuracy    <          1.8E-10 Ry

     iteration # 10     ecut=    60.00 Ry     beta= 0.30
     Davidson diagonalization with overlap
     ethr =  1.02E-13,  avg # of iterations =  4.3

     total cpu time spent up to now is     5042.1 secs

     total energy              =   -8165.86066343 Ry
     estimated scf accuracy    <          1.6E-11 Ry

     iteration # 11     ecut=    60.00 Ry     beta= 0.30
     Davidson diagonalization with overlap
     ethr =  1.00E-13,  avg # of iterations =  2.0

     total cpu time spent up to now is     5055.0 secs

     total energy              =   -8165.86066343 Ry
     estimated scf accuracy    <          4.8E-11 Ry

     iteration # 12     ecut=    60.00 Ry     beta= 0.30
     Davidson diagonalization with overlap
     ethr =  1.00E-13,  avg # of iterations =  1.0

     total cpu time spent up to now is     5067.0 secs

     total energy              =   -8165.86066343 Ry
     estimated scf accuracy    <          2.2E-11 Ry

     iteration # 13     ecut=    60.00 Ry     beta= 0.30
     Davidson diagonalization with overlap
     ethr =  1.00E-13,  avg # of iterations =  1.0

     total cpu time spent up to now is     5079.1 secs

     total energy              =   -8165.86066343 Ry
     estimated scf accuracy    <          1.6E-11 Ry

     iteration # 14     ecut=    60.00 Ry     beta= 0.30
     Davidson diagonalization with overlap
     ethr =  1.00E-13,  avg # of iterations =  1.0

     total cpu time spent up to now is     5090.9 secs

     End of self-consistent calculation

          k = 0.0000 0.0000 0.0000 ( 49019 PWs)   bands (ev):

   -17.2740 -17.2733 -17.2717 -17.2713 -13.1034 -13.0991 -13.0982 -13.0957
   -13.0890 -13.0818 -13.0777 -13.0776 -13.0463 -13.0460 -13.0456 -13.0453
   -13.0437 -13.0436 -13.0430 -13.0429 -13.0371 -13.0368 -13.0365 -13.0362
    -8.7908  -8.5917  -8.3487  -8.2989  -8.2937  -8.2818  -8.2680  -8.2448
    -8.2277  -8.0586  -8.0579  -8.0435  -4.9894  -4.4678  -4.1442  -4.1392
    -4.1355  -4.1340  -4.1304  -4.1248  -4.1216  -4.1148  -4.1076  -4.0860
    -4.0742  -4.0664  -3.9329  -3.4754  -0.0349   0.0173   0.0504   0.1759
     0.1911   0.2354   1.1017   1.3924   1.4015   1.4152   1.4304   1.4964
     1.7139   1.9046   1.9133   1.9229   2.0047   2.0098   2.0205   2.0510
     2.0524   2.0565   2.0880   2.0919   2.1481   2.3560   2.3678   2.4032
     2.4202   2.4429   2.4672   2.4885   2.6845   2.6886   2.9534   3.4106

          k = 0.0000 0.0000 0.2261 ( 48974 PWs)   bands (ev):

   -17.2738 -17.2734 -17.2716 -17.2714 -13.0998 -13.0985 -13.0982 -13.0926
   -13.0926 -13.0854 -13.0777 -13.0777 -13.0461 -13.0458 -13.0458 -13.0455
   -13.0436 -13.0436 -13.0430 -13.0429 -13.0370 -13.0368 -13.0364 -13.0362
    -8.7556  -8.6633  -8.3333  -8.3013  -8.2858  -8.2744  -8.2417  -8.2322
    -8.2156  -8.1037  -8.0538  -8.0467  -4.8680  -4.6066  -4.1440  -4.1424
    -4.1412  -4.1389  -4.1270  -4.1176  -4.1013  -4.1006  -4.0869  -4.0837
    -4.0829  -4.0758  -3.8723  -3.6344   0.0429   0.0838   0.0857   0.1570
     0.4023   0.6026   1.1008   1.1715   1.2843   1.4487   1.4577   1.5005
     1.5432   1.6535   1.8339   1.9235   1.9277   1.9628   2.0418   2.0537
     2.0658   2.1054   2.1488   2.1502   2.2505   2.2523   2.3097   2.3667
     2.3856   2.4073   2.4466   2.4569   2.6057   2.6645   2.9802   3.1273

          k = 0.0000 0.2337 0.0000 ( 49004 PWs)   bands (ev):

   -17.2736 -17.2730 -17.2720 -17.2716 -13.1024 -13.0984 -13.0953 -13.0944
   -13.0881 -13.0828 -13.0807 -13.0805 -13.0462 -13.0460 -13.0456 -13.0454
   -13.0436 -13.0434 -13.0431 -13.0430 -13.0370 -13.0367 -13.0366 -13.0363
    -8.7526  -8.5506  -8.4899  -8.3232  -8.2968  -8.2864  -8.2191  -8.2012
    -8.1820  -8.0864  -8.0706  -8.0669  -4.8605  -4.3687  -4.2431  -4.1481
    -4.1399  -4.1333  -4.1294  -4.1194  -4.1000  -4.0994  -4.0942  -4.0925
    -4.0848  -4.0478  -4.0128  -3.6423   0.0177   0.1805   0.2103   0.2960
     0.3700   0.3929   1.1665   1.2679   1.2710   1.3472   1.4260   1.4735
     1.4924   1.5947   1.7423   1.8437   1.9705   1.9771   2.0197   2.0367
     2.1034   2.1099   2.1504   2.1530   2.1732   2.2670   2.3237   2.3330
     2.3817   2.4043   2.4525   2.5060   2.6897   2.7141   2.7454   3.1304

          k = 0.0000 0.2337 0.2261 ( 48988 PWs)   bands (ev):

   -17.2735 -17.2731 -17.2719 -17.2717 -13.0988 -13.0962 -13.0954 -13.0929
   -13.0916 -13.0864 -13.0807 -13.0806 -13.0461 -13.0459 -13.0458 -13.0456
   -13.0436 -13.0435 -13.0431 -13.0430 -13.0369 -13.0368 -13.0365 -13.0363
    -8.7174  -8.6247  -8.4633  -8.3937  -8.2320  -8.2194  -8.2143  -8.2025
    -8.1936  -8.1085  -8.0824  -8.0744  -4.7450  -4.4965  -4.1700  -4.1431
    -4.1414  -4.1309  -4.1271  -4.1222  -4.1088  -4.1001  -4.0981  -4.0844
    -4.0800  -4.0679  -3.9874  -3.7895   0.2459   0.2561   0.3236   0.3365
     0.4758   0.5497   1.1247   1.2096   1.2534   1.3011   1.3153   1.3998
     1.5102   1.5974   1.6112   1.8062   1.8198   1.9173   1.9318   2.0113
     2.0293   2.1003   2.1077   2.1295   2.2618   2.3014   2.3537   2.3613
     2.3951   2.3984   2.4252   2.4742   2.6503   2.6861   2.7192   2.8712

          k = 0.0000-0.4675 0.0000 ( 48914 PWs)   bands (ev):

   -17.2728 -17.2728 -17.2723 -17.2723 -13.1002 -13.1002 -13.0886 -13.0886
   -13.0878 -13.0878 -13.0847 -13.0847 -13.0461 -13.0461 -13.0455 -13.0455
   -13.0433 -13.0433 -13.0432 -13.0432 -13.0368 -13.0368 -13.0365 -13.0365
    -8.6449  -8.6449  -8.4438  -8.4438  -8.2923  -8.2923  -8.1540  -8.1540
    -8.1363  -8.1363  -8.1015  -8.1015  -4.5475  -4.5475  -4.1768  -4.1768
    -4.1340  -4.1340  -4.1123  -4.1123  -4.1108  -4.1108  -4.0956  -4.0956
    -4.0747  -4.0747  -3.9391  -3.9391   0.0936   0.0936   0.6387   0.6387
     0.8267   0.8267   0.8982   0.8982   0.9864   0.9864   1.3101   1.3101
     1.6050   1.6050   1.7293   1.7293   1.8388   1.8388   2.0209   2.0209
     2.0876   2.0876   2.1176   2.1176   2.2118   2.2118   2.3388   2.3388
     2.3873   2.3873   2.4442   2.4442   2.6356   2.6356   2.8640   2.8640

          k = 0.0000-0.4675 0.2261 ( 48958 PWs)   bands (ev):

   -17.2727 -17.2727 -17.2724 -17.2724 -13.0966 -13.0966 -13.0901 -13.0901
   -13.0877 -13.0877 -13.0869 -13.0869 -13.0460 -13.0460 -13.0457 -13.0457
   -13.0433 -13.0433 -13.0432 -13.0432 -13.0367 -13.0367 -13.0366 -13.0366
    -8.6113  -8.6113  -8.5220  -8.5220  -8.2171  -8.2171  -8.1516  -8.1516
    -8.1402  -8.1402  -8.1302  -8.1302  -4.4418  -4.4418  -4.2336  -4.2336
    -4.1380  -4.1380  -4.1230  -4.1230  -4.1088  -4.1088  -4.0914  -4.0914
    -4.0733  -4.0733  -4.0176  -4.0176   0.4374   0.4374   0.6802   0.6802
     0.7614   0.7614   0.9183   0.9183   0.9553   0.9553   1.2153   1.2153
     1.6617   1.6617   1.7079   1.7079   1.7849   1.7849   1.8865   1.8865
     1.9392   1.9392   1.9679   1.9679   2.3198   2.3198   2.3784   2.3784
     2.3960   2.3960   2.4630   2.4630   2.6453   2.6453   2.7034   2.7034

          k = 0.2505 0.0000 0.0000 ( 48921 PWs)   bands (ev):

   -17.2737 -17.2731 -17.2719 -17.2715 -13.1024 -13.0984 -13.0953 -13.0944
   -13.0881 -13.0827 -13.0807 -13.0805 -13.0462 -13.0460 -13.0456 -13.0454
   -13.0436 -13.0435 -13.0431 -13.0430 -13.0370 -13.0367 -13.0366 -13.0363
    -8.7490  -8.5455  -8.4726  -8.2980  -8.2900  -8.2886  -8.2585  -8.2360
    -8.1643  -8.0919  -8.0770  -8.0661  -4.8582  -4.3605  -4.2199  -4.1391
    -4.1366  -4.1311  -4.1275  -4.1207  -4.1192  -4.1016  -4.0966  -4.0863
    -4.0784  -4.0540  -4.0084  -3.6450   0.0162   0.1738   0.1826   0.3174
     0.3259   0.4674   1.1346   1.1793   1.3055   1.3724   1.4932   1.4946
     1.4985   1.5983   1.8212   1.8394   1.9766   1.9854   2.0184   2.0254
     2.1127   2.1161   2.1637   2.1946   2.2053   2.2254   2.2404   2.3567
     2.3662   2.3945   2.4428   2.5037   2.6113   2.6742   2.7037   3.0474

          k = 0.2505 0.0000 0.2261 ( 48983 PWs)   bands (ev):

   -17.2735 -17.2733 -17.2718 -17.2716 -13.0988 -13.0962 -13.0954 -13.0929
   -13.0916 -13.0863 -13.0807 -13.0806 -13.0461 -13.0459 -13.0458 -13.0456
   -13.0435 -13.0435 -13.0431 -13.0430 -13.0369 -13.0368 -13.0365 -13.0364
    -8.7138  -8.6206  -8.4458  -8.3756  -8.2542  -8.2437  -8.2175  -8.2144
    -8.1766  -8.1081  -8.0875  -8.0800  -4.7418  -4.4905  -4.1528  -4.1469
    -4.1427  -4.1333  -4.1139  -4.1121  -4.1060  -4.1011  -4.0938  -4.0818
    -4.0781  -4.0752  -3.9933  -3.7963   0.2053   0.2516   0.3111   0.4150
     0.4630   0.5445   1.1007   1.1470   1.2132   1.3359   1.3823   1.3839
     1.5707   1.6100   1.6300   1.7811   1.9208   1.9291   2.0216   2.0329
     2.0596   2.0691   2.1487   2.1848   2.2368   2.2424   2.2986   2.3567
     2.3771   2.3859   2.4130   2.4718   2.5725   2.5927   2.6799   2.7607

          k = 0.2505 0.2337 0.0000 ( 48919 PWs)   bands (ev):

   -17.2734 -17.2729 -17.2721 -17.2717 -13.1026 -13.0992 -13.0944 -13.0919
   -13.0874 -13.0847 -13.0823 -13.0801 -13.0462 -13.0460 -13.0456 -13.0454
   -13.0435 -13.0434 -13.0432 -13.0430 -13.0370 -13.0366 -13.0366 -13.0363
    -8.7148  -8.5158  -8.5057  -8.2981  -8.2948  -8.2895  -8.2720  -8.2584
    -8.1497  -8.1092  -8.1053  -8.0442  -4.7569  -4.3090  -4.2903  -4.1367
    -4.1292  -4.1283  -4.1275  -4.1174  -4.1080  -4.0953  -4.0920  -4.0904
    -4.0869  -4.0394  -4.0249  -3.7347   0.0338   0.0928   0.1445   0.2448
     0.6976   0.8103   0.8493   1.0262   1.2528   1.2609   1.2837   1.5346
     1.5550   1.6981   1.7877   1.9096   1.9481   1.9705   2.0431   2.0501
     2.0691   2.1057   2.1227   2.1327   2.2078   2.2723   2.3134   2.3148
     2.3295   2.3518   2.4335   2.4713   2.5944   2.7024   2.7414   3.0503

          k = 0.2505 0.2337 0.2261 ( 48969 PWs)   bands (ev):

   -17.2733 -17.2730 -17.2720 -17.2718 -13.0995 -13.0958 -13.0952 -13.0912
   -13.0900 -13.0874 -13.0821 -13.0813 -13.0460 -13.0459 -13.0457 -13.0456
   -13.0435 -13.0434 -13.0431 -13.0431 -13.0369 -13.0367 -13.0366 -13.0364
    -8.6792  -8.5846  -8.4840  -8.3984  -8.2752  -8.2707  -8.2200  -8.1851
    -8.1567  -8.1251  -8.1051  -8.0729  -4.6457  -4.4073  -4.2197  -4.1378
    -4.1364  -4.1316  -4.1215  -4.1099  -4.1057  -4.1001  -4.0936  -4.0885
    -4.0799  -4.0596  -4.0297  -3.8752   0.1238   0.1863   0.3967   0.5075
     0.7483   0.7643   0.8881   0.9517   1.1281   1.2392   1.3003   1.3556
     1.5623   1.6683   1.6977   1.7947   1.8544   1.9058   1.9201   1.9589
     2.0620   2.0885   2.1729   2.2039   2.2499   2.2979   2.3111   2.3350
     2.3601   2.3759   2.4258   2.4474   2.5770   2.6060   2.6850   2.7878

          k = 0.2505-0.4675 0.0000 ( 48942 PWs)   bands (ev):

   -17.2728 -17.2728 -17.2723 -17.2723 -13.1013 -13.1013 -13.0913 -13.0913
   -13.0866 -13.0866 -13.0821 -13.0821 -13.0461 -13.0461 -13.0455 -13.0455
   -13.0433 -13.0433 -13.0432 -13.0432 -13.0368 -13.0368 -13.0365 -13.0365
    -8.6231  -8.6231  -8.4031  -8.4031  -8.2968  -8.2968  -8.2272  -8.2272
    -8.1854  -8.1854  -8.0532  -8.0532  -4.5238  -4.5238  -4.1600  -4.1600
    -4.1322  -4.1322  -4.1135  -4.1135  -4.1066  -4.1066  -4.0934  -4.0934
    -4.0796  -4.0796  -3.9169  -3.9169   0.0846   0.0846   0.3312   0.3312
     0.4821   0.4821   1.1532   1.1532   1.2290   1.2290   1.3513   1.3513
     1.6272   1.6272   1.8365   1.8365   1.9460   1.9460   2.0267   2.0267
     2.1066   2.1066   2.2013   2.2013   2.2050   2.2050   2.2673   2.2673
     2.3282   2.3282   2.3850   2.3850   2.6372   2.6372   2.8669   2.8669

          k = 0.2505-0.4675 0.2261 ( 48988 PWs)   bands (ev):

   -17.2727 -17.2727 -17.2724 -17.2724 -13.0982 -13.0982 -13.0929 -13.0929
   -13.0862 -13.0862 -13.0841 -13.0841 -13.0460 -13.0460 -13.0457 -13.0457
   -13.0433 -13.0433 -13.0432 -13.0432 -13.0367 -13.0367 -13.0366 -13.0366
    -8.5877  -8.5877  -8.4925  -8.4925  -8.2451  -8.2451  -8.2290  -8.2290
    -8.1521  -8.1521  -8.0818  -8.0818  -4.4215  -4.4215  -4.2222  -4.2222
    -4.1316  -4.1316  -4.1220  -4.1220  -4.0990  -4.0990  -4.0901  -4.0901
    -4.0705  -4.0705  -4.0063  -4.0063   0.3415   0.3415   0.4095   0.4095
     0.5027   0.5027   1.1520   1.1520   1.2003   1.2003   1.2235   1.2235
     1.5561   1.5561   1.7511   1.7511   1.8792   1.8792   1.9816   1.9816
     2.0765   2.0765   2.1106   2.1106   2.2972   2.2972   2.3231   2.3231
     2.3663   2.3663   2.4049   2.4049   2.6148   2.6148   2.6530   2.6530

          k =-0.5009 0.0000 0.0000 ( 48876 PWs)   bands (ev):

   -17.2732 -17.2732 -17.2719 -17.2719 -13.1002 -13.1002 -13.0887 -13.0887
   -13.0878 -13.0878 -13.0847 -13.0847 -13.0461 -13.0461 -13.0455 -13.0455
   -13.0433 -13.0433 -13.0432 -13.0432 -13.0368 -13.0368 -13.0365 -13.0365
    -8.6330  -8.6330  -8.4255  -8.4255  -8.2952  -8.2952  -8.1794  -8.1794
    -8.1573  -8.1573  -8.0940  -8.0940  -4.5379  -4.5379  -4.1734  -4.1734
    -4.1316  -4.1316  -4.1124  -4.1124  -4.0886  -4.0886  -4.0815  -4.0815
    -4.0665  -4.0665  -3.9660  -3.9660   0.0945   0.0945   0.5876   0.5876
     0.8012   0.8012   0.9154   0.9154   1.1190   1.1190   1.2579   1.2579
     1.5892   1.5892   1.8102   1.8102   1.9122   1.9122   2.0283   2.0283
     2.0519   2.0519   2.1983   2.1983   2.2208   2.2208   2.2700   2.2700
     2.3588   2.3588   2.4385   2.4385   2.4912   2.4912   2.7533   2.7533

          k =-0.5009 0.0000 0.2261 ( 48902 PWs)   bands (ev):

   -17.2731 -17.2731 -17.2720 -17.2720 -13.0966 -13.0966 -13.0901 -13.0901
   -13.0877 -13.0877 -13.0869 -13.0869 -13.0460 -13.0460 -13.0457 -13.0457
   -13.0433 -13.0433 -13.0432 -13.0432 -13.0367 -13.0367 -13.0366 -13.0366
    -8.5992  -8.5992  -8.5086  -8.5086  -8.2159  -8.2159  -8.1804  -8.1804
    -8.1567  -8.1567  -8.1231  -8.1231  -4.4296  -4.4296  -4.2162  -4.2162
    -4.1342  -4.1342  -4.1238  -4.1238  -4.0962  -4.0962  -4.0831  -4.0831
    -4.0633  -4.0633  -4.0481  -4.0481   0.4383   0.4383   0.6312   0.6312
     0.7419   0.7419   0.9326   0.9326   1.0312   1.0312   1.1633   1.1633
     1.6723   1.6723   1.8188   1.8188   1.8379   1.8379   1.9438   1.9438
     1.9599   1.9599   2.0680   2.0680   2.2949   2.2949   2.3205   2.3205
     2.3697   2.3697   2.4221   2.4221   2.4918   2.4918   2.5319   2.5319

          k =-0.5009 0.2337 0.0000 ( 48934 PWs)   bands (ev):

   -17.2730 -17.2730 -17.2721 -17.2721 -13.1013 -13.1013 -13.0913 -13.0913
   -13.0866 -13.0866 -13.0821 -13.0821 -13.0461 -13.0461 -13.0455 -13.0455
   -13.0433 -13.0433 -13.0432 -13.0432 -13.0368 -13.0368 -13.0365 -13.0365
    -8.6162  -8.6162  -8.3900  -8.3900  -8.2987  -8.2987  -8.2359  -8.2359
    -8.1999  -8.1999  -8.0539  -8.0539  -4.5187  -4.5187  -4.1617  -4.1617
    -4.1204  -4.1204  -4.1197  -4.1197  -4.0994  -4.0994  -4.0886  -4.0886
    -4.0731  -4.0731  -3.9277  -3.9277   0.0837   0.0837   0.3199   0.3199
     0.4920   0.4920   1.1129   1.1129   1.2395   1.2395   1.4235   1.4235
     1.6409   1.6409   1.8551   1.8551   1.9750   1.9750   2.0530   2.0530
     2.0757   2.0757   2.1770   2.1770   2.1962   2.1962   2.2503   2.2503
     2.2992   2.2992   2.3853   2.3853   2.5953   2.5953   2.8253   2.8253

          k =-0.5009 0.2337 0.2261 ( 48884 PWs)   bands (ev):

   -17.2729 -17.2729 -17.2721 -17.2721 -13.0981 -13.0981 -13.0929 -13.0929
   -13.0862 -13.0862 -13.0841 -13.0841 -13.0460 -13.0460 -13.0457 -13.0457
   -13.0433 -13.0433 -13.0432 -13.0432 -13.0367 -13.0367 -13.0366 -13.0366
    -8.5806  -8.5806  -8.4843  -8.4843  -8.2523  -8.2523  -8.2328  -8.2328
    -8.1604  -8.1604  -8.0836  -8.0836  -4.4152  -4.4152  -4.2150  -4.2150
    -4.1240  -4.1240  -4.1170  -4.1170  -4.1057  -4.1057  -4.0873  -4.0873
    -4.0637  -4.0637  -4.0187  -4.0187   0.3425   0.3425   0.3988   0.3988
     0.5032   0.5032   1.0907   1.0907   1.2273   1.2273   1.2672   1.2672
     1.5883   1.5883   1.7812   1.7812   1.8902   1.8902   2.0458   2.0458
     2.1021   2.1021   2.1470   2.1470   2.2448   2.2448   2.2743   2.2743
     2.3151   2.3151   2.4015   2.4015   2.5625   2.5625   2.5885   2.5885

          k =-0.5009-0.4675 0.0000 ( 48992 PWs)   bands (ev):

   -17.2728 -17.2728 -17.2723 -17.2723 -13.1024 -13.1024 -13.0929 -13.0929
   -13.0856 -13.0856 -13.0805 -13.0805 -13.0461 -13.0461 -13.0455 -13.0455
   -13.0433 -13.0433 -13.0432 -13.0432 -13.0368 -13.0368 -13.0365 -13.0365
    -8.5966  -8.5966  -8.3114  -8.3114  -8.3103  -8.3103  -8.2855  -8.2855
    -8.2703  -8.2703  -8.0307  -8.0307  -4.4998  -4.4998  -4.1438  -4.1438
    -4.1272  -4.1272  -4.1157  -4.1157  -4.1000  -4.1000  -4.0914  -4.0914
    -4.0870  -4.0870  -3.8954  -3.8954   0.0699   0.0699   0.1589   0.1589
     0.3222   0.3222   1.1542   1.1542   1.2861   1.2861   1.6196   1.6196
     1.6520   1.6520   1.9130   1.9130   1.9476   1.9476   2.0227   2.0227
     2.1140   2.1140   2.1631   2.1631   2.2006   2.2006   2.2221   2.2221
     2.2561   2.2561   2.4226   2.4226   2.6801   2.6801   2.9369   2.9369

          k =-0.5009-0.4675 0.2261 ( 48964 PWs)   bands (ev):

   -17.2727 -17.2727 -17.2724 -17.2724 -13.0994 -13.0994 -13.0945 -13.0945
   -13.0850 -13.0850 -13.0825 -13.0825 -13.0460 -13.0460 -13.0457 -13.0457
   -13.0433 -13.0433 -13.0432 -13.0432 -13.0367 -13.0367 -13.0366 -13.0366
    -8.5582  -8.5582  -8.4520  -8.4520  -8.2851  -8.2851  -8.2845  -8.2845
    -8.1602  -8.1602  -8.0639  -8.0639  -4.4010  -4.4010  -4.2118  -4.2118
    -4.1242  -4.1242  -4.1223  -4.1223  -4.0889  -4.0889  -4.0789  -4.0789
    -4.0777  -4.0777  -3.9935  -3.9935   0.1913   0.1913   0.2493   0.2493
     0.4712   0.4712   1.1776   1.1776   1.2215   1.2215   1.3417   1.3417
     1.6170   1.6170   1.7615   1.7615   2.0219   2.0219   2.0574   2.0574
     2.1251   2.1251   2.1253   2.1253   2.2152   2.2152   2.2210   2.2210
     2.3329   2.3329   2.4210   2.4210   2.6502   2.6502   2.7091   2.7091

     highest occupied level (ev):     3.4106

!    total energy              =   -8165.86066343 Ry
     estimated scf accuracy    <          6.3E-12 Ry

     The total energy is the sum of the following terms:
     one-electron contribution =    -325.93818512 Ry
     hartree contribution      =     251.66631086 Ry
     xc contribution           =    -792.77163710 Ry
     ewald contribution        =    -649.19808005 Ry
     one-center paw contrib.   =   -6649.61907203 Ry

     convergence has been achieved in  14 iterations

     Forces acting on atoms (cartesian axes, Ry/au):

     atom    1 type  1   force =    -0.00004013    0.00015908    0.00000000
     atom    2 type  1   force =     0.00004013   -0.00015908    0.00000000
     atom    3 type  1   force =    -0.00004013   -0.00015908    0.00000000
     atom    4 type  1   force =     0.00004013    0.00015908    0.00000000
     atom    5 type  2   force =     0.00000000    0.00000000   -0.00000000
     atom    6 type  2   force =    -0.00000000    0.00000000   -0.00000000
     atom    7 type  2   force =     0.00000000   -0.00000000    0.00000000
     atom    8 type  2   force =     0.00000000    0.00000000    0.00000000
     atom    9 type  3   force =    -0.00011163   -0.00009493   -0.00000000
     atom   10 type  3   force =     0.00011163    0.00009493    0.00000000
     atom   11 type  3   force =    -0.00011163    0.00009493   -0.00000000
     atom   12 type  3   force =     0.00011163   -0.00009493   -0.00000000
     atom   13 type  3   force =     0.00003497    0.00018216    0.00000833
     atom   14 type  3   force =    -0.00003497   -0.00018216    0.00000833
     atom   15 type  3   force =     0.00003497   -0.00018216   -0.00000833
     atom   16 type  3   force =    -0.00003497    0.00018216   -0.00000833
     atom   17 type  3   force =    -0.00003497   -0.00018216   -0.00000833
     atom   18 type  3   force =     0.00003497    0.00018216   -0.00000833
     atom   19 type  3   force =    -0.00003497    0.00018216    0.00000833
     atom   20 type  3   force =     0.00003497   -0.00018216    0.00000833

     Total force =     0.000685     Total SCF correction =     0.000001


     Computing stress (Cartesian axis) and pressure

          total   stress  (Ry/bohr**3)                   (kbar)     P=       -0.13
  -0.00000129   0.00000000   0.00000000           -0.19        0.00        0.00
   0.00000000  -0.00000125   0.00000000            0.00       -0.18        0.00
   0.00000000   0.00000000  -0.00000019            0.00        0.00       -0.03


     bfgs converged in  15 scf cycles and  14 bfgs steps
     (criteria: energy <  1.0E-05 Ry, force <  4.0E-04Ry/Bohr, cell <  2.0E-01kbar)

     End of BFGS Geometry Optimization

     Final enthalpy =   -8165.8606634275 Ry

     File ./tmp/unit_tight.bfgs deleted, as requested
Begin final coordinates
     new unit-cell volume =   6244.95633 a.u.^3 (   925.40705 Ang^3 )
     density =      5.17370 g/cm^3

CELL_PARAMETERS (angstrom)
   8.362020400   0.000000000   0.000000000
   0.000000000   8.960725258   0.000000000
   0.000000000   0.000000000  12.350325959

ATOMIC_POSITIONS (angstrom)
Cs            3.9140556090        3.7286047725        3.0875814897
Cs            4.4479647915        5.2321204856        9.2627444691
Cs           -0.2669545912        0.7517578566        9.2627444691
Cs            8.6289749917        8.2089674016        3.0875814897
Pb            4.1810102002       -0.0000000000       -0.0000000000
Pb            4.1810102002        0.0000000000        6.1751629794
Pb            0.0000000000        4.4803626291        0.0000000000
Pb           -0.0000000000        4.4803626291        6.1751629794
I             4.8762792965        0.0573287137        3.0875814897
I             3.4857411040        8.9033965444        9.2627444691
I             0.6952690962        4.4230339154        9.2627444691
I             7.6667513042        4.5376913428        3.0875814897
I             5.7496540310        2.7323993981       11.8525496849
I             2.6123663694        6.2283258601        5.6773867055
I             1.5686438308        1.7479632310        0.4977762739
I             6.7933765697        7.2127620272        6.6729392533
I             2.6123663694        6.2283258601        0.4977762739
I             5.7496540310        2.7323993981        6.6729392533
I             6.7933765697        7.2127620272       11.8525496849
I             1.5686438308        1.7479632310        5.6773867055
End final coordinates



     Writing output data file ./tmp/unit_tight.save/

     Final scf calculation at the relaxed structure.
     The G-vectors are recalculated for the final unit cell
     Results may differ from those at the preceding step.
 
     Parallelization info
     --------------------
     sticks:   dense  smooth     PW     G-vecs:    dense   smooth      PW
     Min        1022     511    137               110911    39201    5461
     Max        1024     512    138               110913    39204    5466
     Sum       10225    5111   1375              1109119   392029   54621
 


     bravais-lattice index     =            0
     lattice parameter (alat)  =      15.8314  a.u.
     unit-cell volume          =    6244.9563 (a.u.)^3
     number of atoms/cell      =           20
     number of atomic types    =            3
     number of electrons       =       176.00
     number of Kohn-Sham states=           88
     kinetic-energy cutoff     =      60.0000  Ry
     charge density cutoff     =     480.0000  Ry
     convergence threshold     =      1.0E-11
     mixing beta               =       0.3000
     number of iterations used =            8  plain     mixing
     Exchange-correlation= SLA PW PSX PSC
                           (   1   4  10   8   0   0   0)

     celldm(1)=  15.831351  celldm(2)=   0.000000  celldm(3)=   0.000000
     celldm(4)=   0.000000  celldm(5)=   0.000000  celldm(6)=   0.000000

     crystal axes: (cart. coord. in units of alat)
               a(1) = (   0.998141   0.000000   0.000000 )  
               a(2) = (   0.000000   1.069607   0.000000 )  
               a(3) = (   0.000000   0.000000   1.474210 )  

     reciprocal axes: (cart. coord. in units 2 pi/alat)
               b(1) = (  1.001862  0.000000  0.000000 )  
               b(2) = (  0.000000  0.934923  0.000000 )  
               b(3) = (  0.000000  0.000000  0.678329 )  


     PseudoPot. # 1 for Cs read from file:
     /public/home/daomduy/cspbi3/pseudo_pbesol/cs_pbesol_v1.uspp.F.UPF
     MD5 check sum: ae4559e5c840913b791237f814e2d884
     Pseudo is Ultrasoft + core correction, Zval =  9.0
     Generated by new atomic code, or converted to UPF format
     Using radial grid of  905 points,  6 beta functions with: 
                l(1) =   0
                l(2) =   0
                l(3) =   1
                l(4) =   1
                l(5) =   2
                l(6) =   2
     Q(r) pseudized with  6 coefficients,  rinner =    1.500   1.500   1.500
                                                       1.500   1.500

     PseudoPot. # 2 for Pb read from file:
     /public/home/daomduy/cspbi3/pseudo_pbesol/Pb.pbesol-dn-kjpaw_psl.0.2.2.UPF
     MD5 check sum: df0e0ac60519e244e20a4bf230ae894d
     Pseudo is Projector augmented-wave + core cor, Zval = 14.0
     Generated using "atomic" code by A. Dal Corso v.6.0 svn rev. 13079
     Shape of augmentation charge: PSQ
     Using radial grid of 1281 points,  6 beta functions with: 
                l(1) =   0
                l(2) =   0
                l(3) =   1
                l(4) =   1
                l(5) =   2
                l(6) =   2
     Q(r) pseudized with 0 coefficients 


     PseudoPot. # 3 for I  read from file:
     /public/home/daomduy/cspbi3/pseudo_pbesol/I.pbesol-n-kjpaw_psl.0.2.UPF
     MD5 check sum: cecf1a22a184a0b1ae701638a037a48d
     Pseudo is Projector augmented-wave + core cor, Zval =  7.0
     Generated using "atomic" code by A. Dal Corso v.6.0 svn rev. 13079
     Shape of augmentation charge: PSQ
     Using radial grid of 1247 points,  4 beta functions with: 
                l(1) =   0
                l(2) =   0
                l(3) =   1
                l(4) =   1
     Q(r) pseudized with 0 coefficients 


     atomic species   valence    mass     pseudopotential
        Cs             9.00   132.90500     Cs( 1.00)
        Pb            14.00   207.20000     Pb( 1.00)
        I              7.00   126.90400     I ( 1.00)

      8 Sym. Ops., with inversion, found ( 6 have fractional translation)



   Cartesian axes

     site n.     atom                  positions (alat units)
         1           Cs  tau(   1) = (      0.467205419475      0.445068882721      0.368552455346  )
         2           Cs  tau(   2) = (      0.530936058097      0.624537638306      1.105657366039  )
         3           Cs  tau(   3) = (     -0.031865319311      0.089734377792      1.105657366039  )
         4           Cs  tau(   4) = (      1.030006796883      0.979872143235      0.368552455346  )
         5           Pb  tau(   5) = (      0.499070738786     -0.000000000000     -0.000000000000  )
         6           Pb  tau(   6) = (      0.499070738786      0.000000000000      0.737104910693  )
         7           Pb  tau(   7) = (      0.000000000000      0.534803260514      0.000000000000  )
         8           Pb  tau(   8) = (     -0.000000000000      0.534803260514      0.737104910693  )
         9           I   tau(   9) = (      0.582062275496      0.006843103016      0.368552455346  )
        10           I   tau(  10) = (      0.416079202076      1.062763418012      1.105657366039  )
        11           I   tau(  11) = (      0.082991536710      0.527960157498      1.105657366039  )
        12           I   tau(  12) = (      0.915149940862      0.541646363530      0.368552455346  )
        13           I   tau(  13) = (      0.686313581553      0.326155766420      1.414792225906  )
        14           I   tau(  14) = (      0.311827896018      0.743450754608      0.677687315213  )
        15           I   tau(  15) = (      0.187242842768      0.208647494094      0.059417595479  )
        16           I   tau(  16) = (      0.810898634804      0.860959026933      0.796522506172  )
        17           I   tau(  17) = (      0.311827896018      0.743450754608      0.059417595479  )
        18           I   tau(  18) = (      0.686313581553      0.326155766420      0.796522506172  )
        19           I   tau(  19) = (      0.810898634804      0.860959026933      1.414792225906  )
        20           I   tau(  20) = (      0.187242842768      0.208647494094      0.677687315213  )

     number of k points=    18
                       cart. coord. in units 2pi/alat
        k(    1) = (      0.000000000000      0.000000000000      0.000000000000), wk =      0.041666666667
        k(    2) = (      0.000000000000      0.000000000000      0.226109830838), wk =      0.083333333333
        k(    3) = (      0.000000000000      0.233730811364      0.000000000000), wk =      0.083333333333
        k(    4) = (      0.000000000000      0.233730811364      0.226109830838), wk =      0.166666666667
        k(    5) = (      0.000000000000     -0.467461622728      0.000000000000), wk =      0.041666666667
        k(    6) = (      0.000000000000     -0.467461622728      0.226109830838), wk =      0.083333333333
        k(    7) = (      0.250465495741      0.000000000000      0.000000000000), wk =      0.083333333333
        k(    8) = (      0.250465495741      0.000000000000      0.226109830838), wk =      0.166666666667
        k(    9) = (      0.250465495741      0.233730811364      0.000000000000), wk =      0.166666666667
        k(   10) = (      0.250465495741      0.233730811364      0.226109830838), wk =      0.333333333333
        k(   11) = (      0.250465495741     -0.467461622728      0.000000000000), wk =      0.083333333333
        k(   12) = (      0.250465495741     -0.467461622728      0.226109830838), wk =      0.166666666667
        k(   13) = (     -0.500930991483      0.000000000000      0.000000000000), wk =      0.041666666667
        k(   14) = (     -0.500930991483      0.000000000000      0.226109830838), wk =      0.083333333333
        k(   15) = (     -0.500930991483      0.233730811364      0.000000000000), wk =      0.083333333333
        k(   16) = (     -0.500930991483      0.233730811364      0.226109830838), wk =      0.166666666667
        k(   17) = (     -0.500930991483     -0.467461622728      0.000000000000), wk =      0.041666666667
        k(   18) = (     -0.500930991483     -0.467461622728      0.226109830838), wk =      0.083333333333

     Dense  grid:  1109119 G-vectors     FFT dimensions: ( 120, 120, 180)

     Smooth grid:   392029 G-vectors     FFT dimensions: (  80,  90, 120)

     Estimated max dynamical RAM per process >     234.63 MB

     Estimated total dynamical RAM >       9.17 GB

     Initial potential from superposition of free atoms

     starting charge  175.83973, renormalised to  176.00000
     Starting wfcs are  136 randomized atomic wfcs
     Checking if some PAW data can be deallocated... 

     total cpu time spent up to now is     5180.5 secs

     Self-consistent Calculation

     iteration #  1     ecut=    60.00 Ry     beta= 0.30
     Davidson diagonalization with overlap
     ethr =  1.00E-06,  avg # of iterations = 14.3

     total cpu time spent up to now is     5231.4 secs

     total energy              =   -8165.83982203 Ry
     estimated scf accuracy    <       0.33128708 Ry

     iteration #  2     ecut=    60.00 Ry     beta= 0.30
     Davidson diagonalization with overlap
     ethr =  1.88E-04,  avg # of iterations =  2.0

     total cpu time spent up to now is     5244.8 secs

     total energy              =   -8165.84440078 Ry
     estimated scf accuracy    <       0.05782904 Ry

     iteration #  3     ecut=    60.00 Ry     beta= 0.30
     Davidson diagonalization with overlap
     ethr =  3.29E-05,  avg # of iterations =  3.1

     total cpu time spent up to now is     5259.8 secs

     total energy              =   -8165.85867013 Ry
     estimated scf accuracy    <       0.00638380 Ry

     iteration #  4     ecut=    60.00 Ry     beta= 0.30
     Davidson diagonalization with overlap
     ethr =  3.63E-06,  avg # of iterations =  4.0

     total cpu time spent up to now is     5275.9 secs

     total energy              =   -8165.86015541 Ry
     estimated scf accuracy    <       0.00132160 Ry

     iteration #  5     ecut=    60.00 Ry     beta= 0.30
     Davidson diagonalization with overlap
     ethr =  7.51E-07,  avg # of iterations =  4.6

     total cpu time spent up to now is     5293.0 secs

     total energy              =   -8165.86059756 Ry
     estimated scf accuracy    <       0.00030314 Ry

     iteration #  6     ecut=    60.00 Ry     beta= 0.30
     Davidson diagonalization with overlap
     ethr =  1.72E-07,  avg # of iterations =  4.0

     total cpu time spent up to now is     5308.8 secs

     total energy              =   -8165.86061053 Ry
     estimated scf accuracy    <       0.00009466 Ry

     iteration #  7     ecut=    60.00 Ry     beta= 0.30
     Davidson diagonalization with overlap
     ethr =  5.38E-08,  avg # of iterations =  4.5

     total cpu time spent up to now is     5326.2 secs

     total energy              =   -8165.86065780 Ry
     estimated scf accuracy    <       0.00004080 Ry

     iteration #  8     ecut=    60.00 Ry     beta= 0.30
     Davidson diagonalization with overlap
     ethr =  2.32E-08,  avg # of iterations =  3.2

     total cpu time spent up to now is     5340.7 secs

     total energy              =   -8165.86066545 Ry
     estimated scf accuracy    <       0.00000403 Ry

     iteration #  9     ecut=    60.00 Ry     beta= 0.30
     Davidson diagonalization with overlap
     ethr =  2.29E-09,  avg # of iterations =  6.4

     total cpu time spent up to now is     5362.7 secs

     total energy              =   -8165.86067117 Ry
     estimated scf accuracy    <       0.00000147 Ry

     iteration # 10     ecut=    60.00 Ry     beta= 0.30
     Davidson diagonalization with overlap
     ethr =  8.33E-10,  avg # of iterations =  3.8

     total cpu time spent up to now is     5377.6 secs

     total energy              =   -8165.86067217 Ry
     estimated scf accuracy    <       0.00000014 Ry

     iteration # 11     ecut=    60.00 Ry     beta= 0.30
     Davidson diagonalization with overlap
     ethr =  8.08E-11,  avg # of iterations =  6.0

     total cpu time spent up to now is     5397.5 secs

     total energy              =   -8165.86067268 Ry
     estimated scf accuracy    <       0.00000002 Ry

     iteration # 12     ecut=    60.00 Ry     beta= 0.30
     Davidson diagonalization with overlap
     ethr =  8.89E-12,  avg # of iterations =  4.8

     total cpu time spent up to now is     5413.9 secs

     total energy              =   -8165.86067289 Ry
     estimated scf accuracy    <          4.3E-09 Ry

     iteration # 13     ecut=    60.00 Ry     beta= 0.30
     Davidson diagonalization with overlap
     ethr =  2.47E-12,  avg # of iterations =  5.0

     total cpu time spent up to now is     5431.7 secs

     total energy              =   -8165.86067299 Ry
     estimated scf accuracy    <          7.8E-10 Ry

     iteration # 14     ecut=    60.00 Ry     beta= 0.30
     Davidson diagonalization with overlap
     ethr =  4.43E-13,  avg # of iterations =  5.0

     total cpu time spent up to now is     5449.4 secs

     total energy              =   -8165.86067304 Ry
     estimated scf accuracy    <          2.3E-11 Ry

     iteration # 15     ecut=    60.00 Ry     beta= 0.30
     Davidson diagonalization with overlap
     ethr =  1.00E-13,  avg # of iterations =  4.3

     total cpu time spent up to now is     5464.6 secs

     total energy              =   -8165.86067307 Ry
     estimated scf accuracy    <          1.3E-11 Ry

     iteration # 16     ecut=    60.00 Ry     beta= 0.30
     Davidson diagonalization with overlap
     ethr =  1.00E-13,  avg # of iterations =  2.0

     total cpu time spent up to now is     5477.8 secs

     total energy              =   -8165.86067308 Ry
     estimated scf accuracy    <          1.6E-11 Ry

     iteration # 17     ecut=    60.00 Ry     beta= 0.30
     Davidson diagonalization with overlap
     ethr =  1.00E-13,  avg # of iterations =  1.7

     total cpu time spent up to now is     5490.1 secs

     End of self-consistent calculation

          k = 0.0000 0.0000 0.0000 ( 49035 PWs)   bands (ev):

   -17.2740 -17.2733 -17.2717 -17.2713 -13.1034 -13.0991 -13.0982 -13.0957
   -13.0890 -13.0818 -13.0777 -13.0776 -13.0463 -13.0460 -13.0456 -13.0453
   -13.0437 -13.0436 -13.0430 -13.0429 -13.0371 -13.0368 -13.0365 -13.0362
    -8.7908  -8.5917  -8.3487  -8.2989  -8.2937  -8.2818  -8.2680  -8.2448
    -8.2277  -8.0586  -8.0579  -8.0435  -4.9894  -4.4678  -4.1442  -4.1392
    -4.1355  -4.1340  -4.1304  -4.1248  -4.1216  -4.1148  -4.1076  -4.0860
    -4.0742  -4.0664  -3.9329  -3.4754  -0.0349   0.0173   0.0504   0.1759
     0.1911   0.2354   1.1017   1.3924   1.4015   1.4152   1.4304   1.4964
     1.7139   1.9046   1.9133   1.9229   2.0047   2.0098   2.0205   2.0510
     2.0524   2.0565   2.0880   2.0919   2.1481   2.3560   2.3678   2.4032
     2.4202   2.4429   2.4672   2.4885   2.6845   2.6886   2.9534   3.4106

          k = 0.0000 0.0000 0.2261 ( 49008 PWs)   bands (ev):

   -17.2738 -17.2734 -17.2716 -17.2714 -13.0998 -13.0985 -13.0982 -13.0926
   -13.0926 -13.0854 -13.0777 -13.0777 -13.0461 -13.0458 -13.0458 -13.0455
   -13.0437 -13.0436 -13.0430 -13.0429 -13.0370 -13.0369 -13.0364 -13.0363
    -8.7556  -8.6633  -8.3333  -8.3013  -8.2858  -8.2744  -8.2417  -8.2322
    -8.2156  -8.1037  -8.0538  -8.0467  -4.8680  -4.6066  -4.1440  -4.1424
    -4.1412  -4.1389  -4.1270  -4.1176  -4.1013  -4.1006  -4.0869  -4.0837
    -4.0829  -4.0758  -3.8723  -3.6344   0.0429   0.0838   0.0857   0.1570
     0.4023   0.6026   1.1008   1.1715   1.2843   1.4487   1.4577   1.5005
     1.5432   1.6535   1.8339   1.9235   1.9277   1.9628   2.0418   2.0537
     2.0658   2.1054   2.1488   2.1502   2.2505   2.2523   2.3097   2.3667
     2.3856   2.4073   2.4466   2.4569   2.6057   2.6645   2.9802   3.1273

          k = 0.0000 0.2337 0.0000 ( 49064 PWs)   bands (ev):

   -17.2736 -17.2730 -17.2720 -17.2716 -13.1024 -13.0984 -13.0953 -13.0944
   -13.0881 -13.0828 -13.0807 -13.0805 -13.0462 -13.0460 -13.0456 -13.0454
   -13.0436 -13.0435 -13.0431 -13.0430 -13.0370 -13.0367 -13.0366 -13.0363
    -8.7526  -8.5506  -8.4899  -8.3232  -8.2968  -8.2864  -8.2191  -8.2012
    -8.1820  -8.0864  -8.0706  -8.0669  -4.8605  -4.3687  -4.2431  -4.1481
    -4.1399  -4.1333  -4.1294  -4.1194  -4.1000  -4.0994  -4.0942  -4.0925
    -4.0848  -4.0478  -4.0128  -3.6423   0.0177   0.1805   0.2103   0.2960
     0.3700   0.3929   1.1665   1.2679   1.2710   1.3472   1.4260   1.4735
     1.4924   1.5947   1.7423   1.8437   1.9705   1.9771   2.0197   2.0367
     2.1034   2.1099   2.1504   2.1530   2.1732   2.2670   2.3237   2.3330
     2.3817   2.4043   2.4525   2.5060   2.6897   2.7141   2.7454   3.1304

          k = 0.0000 0.2337 0.2261 ( 49030 PWs)   bands (ev):

   -17.2735 -17.2731 -17.2719 -17.2717 -13.0988 -13.0962 -13.0954 -13.0929
   -13.0916 -13.0864 -13.0807 -13.0806 -13.0461 -13.0459 -13.0458 -13.0456
   -13.0436 -13.0435 -13.0431 -13.0430 -13.0369 -13.0368 -13.0365 -13.0364
    -8.7174  -8.6247  -8.4633  -8.3937  -8.2320  -8.2194  -8.2143  -8.2025
    -8.1936  -8.1085  -8.0824  -8.0744  -4.7450  -4.4965  -4.1700  -4.1431
    -4.1414  -4.1309  -4.1271  -4.1222  -4.1088  -4.1001  -4.0981  -4.0844
    -4.0800  -4.0679  -3.9874  -3.7895   0.2459   0.2561   0.3236   0.3365
     0.4758   0.5497   1.1247   1.2096   1.2534   1.3011   1.3153   1.3998
     1.5102   1.5974   1.6112   1.8062   1.8198   1.9173   1.9318   2.0113
     2.0293   2.1003   2.1077   2.1295   2.2618   2.3014   2.3537   2.3613
     2.3951   2.3984   2.4252   2.4742   2.6503   2.6861   2.7192   2.8712

          k = 0.0000-0.4675 0.0000 ( 48986 PWs)   bands (ev):

   -17.2728 -17.2728 -17.2723 -17.2723 -13.1002 -13.1002 -13.0886 -13.0886
   -13.0878 -13.0878 -13.0847 -13.0847 -13.0461 -13.0461 -13.0455 -13.0455
   -13.0434 -13.0434 -13.0432 -13.0432 -13.0368 -13.0368 -13.0365 -13.0365
    -8.6449  -8.6449  -8.4438  -8.4438  -8.2923  -8.2923  -8.1540  -8.1540
    -8.1363  -8.1363  -8.1015  -8.1015  -4.5475  -4.5475  -4.1768  -4.1768
    -4.1340  -4.1340  -4.1123  -4.1123  -4.1108  -4.1108  -4.0956  -4.0956
    -4.0747  -4.0747  -3.9391  -3.9391   0.0936   0.0936   0.6387   0.6387
     0.8267   0.8267   0.8982   0.8982   0.9864   0.9864   1.3101   1.3101
     1.6050   1.6050   1.7293   1.7293   1.8388   1.8388   2.0209   2.0209
     2.0876   2.0876   2.1176   2.1176   2.2118   2.2118   2.3388   2.3388
     2.3873   2.3873   2.4442   2.4442   2.6356   2.6356   2.8640   2.8640

          k = 0.0000-0.4675 0.2261 ( 49036 PWs)   bands (ev):

   -17.2727 -17.2727 -17.2724 -17.2724 -13.0966 -13.0966 -13.0901 -13.0901
   -13.0877 -13.0877 -13.0869 -13.0869 -13.0460 -13.0460 -13.0457 -13.0457
   -13.0433 -13.0433 -13.0433 -13.0433 -13.0367 -13.0367 -13.0366 -13.0366
    -8.6113  -8.6113  -8.5220  -8.5220  -8.2171  -8.2171  -8.1516  -8.1516
    -8.1402  -8.1402  -8.1302  -8.1302  -4.4418  -4.4418  -4.2336  -4.2336
    -4.1380  -4.1380  -4.1230  -4.1230  -4.1088  -4.1088  -4.0914  -4.0914
    -4.0733  -4.0733  -4.0176  -4.0176   0.4374   0.4374   0.6802   0.6802
     0.7614   0.7614   0.9183   0.9183   0.9553   0.9553   1.2153   1.2153
     1.6617   1.6617   1.7079   1.7079   1.7849   1.7849   1.8864   1.8864
     1.9392   1.9392   1.9679   1.9679   2.3198   2.3198   2.3784   2.3784
     2.3960   2.3960   2.4630   2.4630   2.6453   2.6453   2.7034   2.7034

          k = 0.2505 0.0000 0.0000 ( 48979 PWs)   bands (ev):

   -17.2737 -17.2731 -17.2719 -17.2715 -13.1024 -13.0984 -13.0953 -13.0944
   -13.0881 -13.0827 -13.0807 -13.0805 -13.0462 -13.0460 -13.0456 -13.0454
   -13.0436 -13.0435 -13.0431 -13.0430 -13.0370 -13.0367 -13.0366 -13.0363
    -8.7490  -8.5455  -8.4726  -8.2980  -8.2900  -8.2886  -8.2585  -8.2360
    -8.1643  -8.0919  -8.0770  -8.0661  -4.8582  -4.3605  -4.2199  -4.1391
    -4.1366  -4.1311  -4.1275  -4.1207  -4.1192  -4.1016  -4.0966  -4.0863
    -4.0784  -4.0540  -4.0084  -3.6450   0.0162   0.1738   0.1826   0.3174
     0.3259   0.4674   1.1346   1.1793   1.3055   1.3724   1.4932   1.4946
     1.4985   1.5983   1.8212   1.8394   1.9766   1.9854   2.0184   2.0254
     2.1127   2.1161   2.1637   2.1946   2.2053   2.2254   2.2404   2.3567
     2.3662   2.3945   2.4428   2.5037   2.6113   2.6742   2.7037   3.0474

          k = 0.2505 0.0000 0.2261 ( 49027 PWs)   bands (ev):

   -17.2735 -17.2733 -17.2718 -17.2716 -13.0988 -13.0962 -13.0954 -13.0929
   -13.0916 -13.0863 -13.0807 -13.0806 -13.0461 -13.0459 -13.0458 -13.0456
   -13.0436 -13.0435 -13.0431 -13.0430 -13.0369 -13.0368 -13.0365 -13.0364
    -8.7138  -8.6206  -8.4458  -8.3756  -8.2542  -8.2437  -8.2175  -8.2144
    -8.1766  -8.1081  -8.0875  -8.0800  -4.7418  -4.4905  -4.1528  -4.1469
    -4.1427  -4.1333  -4.1139  -4.1121  -4.1060  -4.1011  -4.0938  -4.0818
    -4.0781  -4.0752  -3.9933  -3.7963   0.2053   0.2516   0.3112   0.4150
     0.4630   0.5445   1.1007   1.1470   1.2132   1.3359   1.3823   1.3839
     1.5707   1.6100   1.6300   1.7811   1.9208   1.9291   2.0216   2.0329
     2.0596   2.0691   2.1487   2.1848   2.2368   2.2424   2.2986   2.3567
     2.3771   2.3859   2.4130   2.4718   2.5725   2.5927   2.6799   2.7607

          k = 0.2505 0.2337 0.0000 ( 48988 PWs)   bands (ev):

   -17.2734 -17.2729 -17.2721 -17.2717 -13.1026 -13.0992 -13.0944 -13.0919
   -13.0874 -13.0847 -13.0823 -13.0801 -13.0462 -13.0461 -13.0456 -13.0454
   -13.0435 -13.0434 -13.0432 -13.0430 -13.0370 -13.0367 -13.0366 -13.0363
    -8.7148  -8.5158  -8.5057  -8.2981  -8.2948  -8.2895  -8.2720  -8.2584
    -8.1497  -8.1092  -8.1053  -8.0442  -4.7569  -4.3090  -4.2903  -4.1367
    -4.1292  -4.1283  -4.1275  -4.1174  -4.1080  -4.0953  -4.0920  -4.0904
    -4.0869  -4.0394  -4.0249  -3.7347   0.0338   0.0928   0.1445   0.2448
     0.6976   0.8103   0.8493   1.0262   1.2528   1.2609   1.2837   1.5346
     1.5550   1.6981   1.7877   1.9096   1.9481   1.9705   2.0431   2.0501
     2.0691   2.1057   2.1227   2.1327   2.2078   2.2723   2.3134   2.3148
     2.3295   2.3518   2.4335   2.4713   2.5944   2.7024   2.7414   3.0503

          k = 0.2505 0.2337 0.2261 ( 49014 PWs)   bands (ev):

   -17.2733 -17.2730 -17.2720 -17.2718 -13.0995 -13.0958 -13.0952 -13.0912
   -13.0901 -13.0874 -13.0821 -13.0813 -13.0460 -13.0459 -13.0457 -13.0456
   -13.0435 -13.0434 -13.0431 -13.0431 -13.0369 -13.0367 -13.0366 -13.0364
    -8.6792  -8.5846  -8.4840  -8.3984  -8.2752  -8.2707  -8.2200  -8.1851
    -8.1567  -8.1251  -8.1051  -8.0729  -4.6457  -4.4073  -4.2197  -4.1378
    -4.1364  -4.1316  -4.1215  -4.1099  -4.1057  -4.1001  -4.0936  -4.0885
    -4.0799  -4.0596  -4.0297  -3.8752   0.1238   0.1863   0.3967   0.5075
     0.7483   0.7643   0.8881   0.9517   1.1281   1.2392   1.3003   1.3556
     1.5623   1.6683   1.6977   1.7947   1.8544   1.9058   1.9201   1.9589
     2.0620   2.0885   2.1729   2.2039   2.2499   2.2979   2.3111   2.3350
     2.3601   2.3759   2.4258   2.4474   2.5770   2.6060   2.6850   2.7878

          k = 0.2505-0.4675 0.0000 ( 49006 PWs)   bands (ev):

   -17.2728 -17.2728 -17.2723 -17.2723 -13.1014 -13.1014 -13.0913 -13.0913
   -13.0866 -13.0866 -13.0821 -13.0821 -13.0461 -13.0461 -13.0455 -13.0455
   -13.0433 -13.0433 -13.0432 -13.0432 -13.0368 -13.0368 -13.0365 -13.0365
    -8.6231  -8.6231  -8.4031  -8.4031  -8.2968  -8.2968  -8.2272  -8.2272
    -8.1854  -8.1854  -8.0532  -8.0532  -4.5238  -4.5238  -4.1600  -4.1600
    -4.1322  -4.1322  -4.1135  -4.1135  -4.1066  -4.1066  -4.0934  -4.0934
    -4.0796  -4.0796  -3.9169  -3.9169   0.0846   0.0846   0.3312   0.3312
     0.4821   0.4821   1.1532   1.1532   1.2290   1.2290   1.3513   1.3513
     1.6272   1.6272   1.8365   1.8365   1.9460   1.9460   2.0267   2.0267
     2.1066   2.1066   2.2013   2.2013   2.2050   2.2050   2.2673   2.2673
     2.3282   2.3282   2.3850   2.3850   2.6372   2.6372   2.8669   2.8669

          k = 0.2505-0.4675 0.2261 ( 49044 PWs)   bands (ev):

   -17.2727 -17.2727 -17.2724 -17.2724 -13.0982 -13.0982 -13.0929 -13.0929
   -13.0862 -13.0862 -13.0841 -13.0841 -13.0460 -13.0460 -13.0457 -13.0457
   -13.0433 -13.0433 -13.0432 -13.0432 -13.0367 -13.0367 -13.0366 -13.0366
    -8.5877  -8.5877  -8.4925  -8.4925  -8.2451  -8.2451  -8.2290  -8.2290
    -8.1521  -8.1521  -8.0818  -8.0818  -4.4215  -4.4215  -4.2222  -4.2222
    -4.1316  -4.1316  -4.1220  -4.1220  -4.0990  -4.0990  -4.0901  -4.0901
    -4.0705  -4.0705  -4.0063  -4.0063   0.3415   0.3415   0.4095   0.4095
     0.5027   0.5027   1.1520   1.1520   1.2003   1.2003   1.2235   1.2235
     1.5561   1.5561   1.7511   1.7511   1.8792   1.8792   1.9816   1.9816
     2.0765   2.0765   2.1106   2.1106   2.2972   2.2972   2.3231   2.3231
     2.3663   2.3663   2.4049   2.4049   2.6148   2.6148   2.6530   2.6530

          k =-0.5009 0.0000 0.0000 ( 48938 PWs)   bands (ev):

   -17.2732 -17.2732 -17.2719 -17.2719 -13.1002 -13.1002 -13.0887 -13.0887
   -13.0878 -13.0878 -13.0847 -13.0847 -13.0461 -13.0461 -13.0455 -13.0455
   -13.0434 -13.0434 -13.0432 -13.0432 -13.0368 -13.0368 -13.0365 -13.0365
    -8.6330  -8.6330  -8.4255  -8.4255  -8.2952  -8.2952  -8.1794  -8.1794
    -8.1573  -8.1573  -8.0940  -8.0940  -4.5379  -4.5379  -4.1734  -4.1734
    -4.1316  -4.1316  -4.1124  -4.1124  -4.0886  -4.0886  -4.0815  -4.0815
    -4.0665  -4.0665  -3.9660  -3.9660   0.0945   0.0945   0.5876   0.5876
     0.8012   0.8012   0.9154   0.9154   1.1190   1.1190   1.2579   1.2579
     1.5892   1.5892   1.8102   1.8102   1.9122   1.9122   2.0283   2.0283
     2.0519   2.0519   2.1983   2.1983   2.2208   2.2208   2.2700   2.2700
     2.3588   2.3588   2.4385   2.4385   2.4912   2.4912   2.7533   2.7533

          k =-0.5009 0.0000 0.2261 ( 48970 PWs)   bands (ev):

   -17.2731 -17.2731 -17.2720 -17.2720 -13.0966 -13.0966 -13.0901 -13.0901
   -13.0877 -13.0877 -13.0869 -13.0869 -13.0460 -13.0460 -13.0457 -13.0457
   -13.0433 -13.0433 -13.0432 -13.0432 -13.0367 -13.0367 -13.0366 -13.0366
    -8.5992  -8.5992  -8.5086  -8.5086  -8.2159  -8.2159  -8.1804  -8.1804
    -8.1567  -8.1567  -8.1231  -8.1231  -4.4295  -4.4295  -4.2162  -4.2162
    -4.1342  -4.1342  -4.1238  -4.1238  -4.0962  -4.0962  -4.0831  -4.0831
    -4.0633  -4.0633  -4.0481  -4.0481   0.4383   0.4383   0.6312   0.6312
     0.7419   0.7419   0.9326   0.9326   1.0312   1.0312   1.1633   1.1633
     1.6723   1.6723   1.8188   1.8188   1.8379   1.8379   1.9438   1.9438
     1.9599   1.9599   2.0680   2.0680   2.2949   2.2949   2.3205   2.3205
     2.3697   2.3697   2.4221   2.4221   2.4918   2.4918   2.5319   2.5319

          k =-0.5009 0.2337 0.0000 ( 49016 PWs)   bands (ev):

   -17.2730 -17.2730 -17.2721 -17.2721 -13.1013 -13.1013 -13.0913 -13.0913
   -13.0867 -13.0867 -13.0821 -13.0821 -13.0461 -13.0461 -13.0455 -13.0455
   -13.0433 -13.0433 -13.0432 -13.0432 -13.0368 -13.0368 -13.0365 -13.0365
    -8.6162  -8.6162  -8.3900  -8.3900  -8.2987  -8.2987  -8.2359  -8.2359
    -8.1999  -8.1999  -8.0539  -8.0539  -4.5187  -4.5187  -4.1617  -4.1617
    -4.1204  -4.1204  -4.1197  -4.1197  -4.0994  -4.0994  -4.0886  -4.0886
    -4.0731  -4.0731  -3.9277  -3.9277   0.0837   0.0837   0.3199   0.3199
     0.4920   0.4920   1.1129   1.1129   1.2395   1.2395   1.4235   1.4235
     1.6409   1.6409   1.8551   1.8551   1.9750   1.9750   2.0530   2.0530
     2.0757   2.0757   2.1770   2.1770   2.1962   2.1962   2.2503   2.2503
     2.2992   2.2992   2.3853   2.3853   2.5953   2.5953   2.8253   2.8253

          k =-0.5009 0.2337 0.2261 ( 48972 PWs)   bands (ev):

   -17.2729 -17.2729 -17.2721 -17.2721 -13.0982 -13.0982 -13.0929 -13.0929
   -13.0862 -13.0862 -13.0841 -13.0841 -13.0460 -13.0460 -13.0457 -13.0457
   -13.0433 -13.0433 -13.0432 -13.0432 -13.0367 -13.0367 -13.0366 -13.0366
    -8.5806  -8.5806  -8.4843  -8.4843  -8.2523  -8.2523  -8.2328  -8.2328
    -8.1604  -8.1604  -8.0836  -8.0836  -4.4152  -4.4152  -4.2150  -4.2150
    -4.1240  -4.1240  -4.1170  -4.1170  -4.1057  -4.1057  -4.0873  -4.0873
    -4.0637  -4.0637  -4.0187  -4.0187   0.3425   0.3425   0.3988   0.3988
     0.5032   0.5032   1.0907   1.0907   1.2273   1.2273   1.2672   1.2672
     1.5883   1.5883   1.7812   1.7812   1.8902   1.8902   2.0457   2.0457
     2.1021   2.1021   2.1470   2.1470   2.2448   2.2448   2.2743   2.2743
     2.3151   2.3151   2.4015   2.4015   2.5625   2.5625   2.5885   2.5885

          k =-0.5009-0.4675 0.0000 ( 49016 PWs)   bands (ev):

   -17.2728 -17.2728 -17.2723 -17.2723 -13.1024 -13.1024 -13.0929 -13.0929
   -13.0856 -13.0856 -13.0805 -13.0805 -13.0461 -13.0461 -13.0455 -13.0455
   -13.0433 -13.0433 -13.0432 -13.0432 -13.0368 -13.0368 -13.0365 -13.0365
    -8.5966  -8.5966  -8.3114  -8.3114  -8.3103  -8.3103  -8.2855  -8.2855
    -8.2703  -8.2703  -8.0307  -8.0307  -4.4998  -4.4998  -4.1438  -4.1438
    -4.1272  -4.1272  -4.1157  -4.1157  -4.1000  -4.1000  -4.0914  -4.0914
    -4.0870  -4.0870  -3.8954  -3.8954   0.0699   0.0699   0.1589   0.1589
     0.3222   0.3222   1.1542   1.1542   1.2861   1.2861   1.6196   1.6196
     1.6520   1.6520   1.9129   1.9129   1.9476   1.9476   2.0227   2.0227
     2.1140   2.1140   2.1631   2.1631   2.2006   2.2006   2.2221   2.2221
     2.2561   2.2561   2.4226   2.4226   2.6801   2.6801   2.9369   2.9369

          k =-0.5009-0.4675 0.2261 ( 49020 PWs)   bands (ev):

   -17.2727 -17.2727 -17.2724 -17.2724 -13.0994 -13.0994 -13.0945 -13.0945
   -13.0850 -13.0850 -13.0825 -13.0825 -13.0460 -13.0460 -13.0457 -13.0457
   -13.0433 -13.0433 -13.0432 -13.0432 -13.0367 -13.0367 -13.0366 -13.0366
    -8.5582  -8.5582  -8.4520  -8.4520  -8.2851  -8.2851  -8.2845  -8.2845
    -8.1602  -8.1602  -8.0639  -8.0639  -4.4010  -4.4010  -4.2118  -4.2118
    -4.1242  -4.1242  -4.1223  -4.1223  -4.0889  -4.0889  -4.0789  -4.0789
    -4.0777  -4.0777  -3.9935  -3.9935   0.1913   0.1913   0.2493   0.2493
     0.4712   0.4712   1.1776   1.1776   1.2215   1.2215   1.3417   1.3417
     1.6170   1.6170   1.7615   1.7615   2.0219   2.0219   2.0574   2.0574
     2.1251   2.1251   2.1253   2.1253   2.2152   2.2152   2.2210   2.2210
     2.3329   2.3329   2.4210   2.4210   2.6502   2.6502   2.7091   2.7091

     highest occupied level (ev):     3.4106

!    total energy              =   -8165.86067309 Ry
     estimated scf accuracy    <          6.4E-13 Ry

     The total energy is the sum of the following terms:
     one-electron contribution =    -325.93815956 Ry
     hartree contribution      =     251.66621909 Ry
     xc contribution           =    -792.77161099 Ry
     ewald contribution        =    -649.19808005 Ry
     one-center paw contrib.   =   -6649.61904158 Ry

     convergence has been achieved in  17 iterations

     Forces acting on atoms (cartesian axes, Ry/au):

     atom    1 type  1   force =    -0.00003926    0.00015897    0.00000000
     atom    2 type  1   force =     0.00003926   -0.00015897    0.00000000
     atom    3 type  1   force =    -0.00003926   -0.00015897    0.00000000
     atom    4 type  1   force =     0.00003926    0.00015897    0.00000000
     atom    5 type  2   force =     0.00000000    0.00000000   -0.00000000
     atom    6 type  2   force =    -0.00000000    0.00000000   -0.00000000
     atom    7 type  2   force =     0.00000000   -0.00000000    0.00000000
     atom    8 type  2   force =     0.00000000    0.00000000    0.00000000
     atom    9 type  3   force =    -0.00011159   -0.00009487    0.00000000
     atom   10 type  3   force =     0.00011159    0.00009487    0.00000000
     atom   11 type  3   force =    -0.00011159    0.00009487    0.00000000
     atom   12 type  3   force =     0.00011159   -0.00009487    0.00000000
     atom   13 type  3   force =     0.00003514    0.00018223    0.00000831
     atom   14 type  3   force =    -0.00003514   -0.00018223    0.00000831
     atom   15 type  3   force =     0.00003514   -0.00018223   -0.00000831
     atom   16 type  3   force =    -0.00003514    0.00018223   -0.00000831
     atom   17 type  3   force =    -0.00003514   -0.00018223   -0.00000831
     atom   18 type  3   force =     0.00003514    0.00018223   -0.00000831
     atom   19 type  3   force =    -0.00003514    0.00018223    0.00000831
     atom   20 type  3   force =     0.00003514   -0.00018223    0.00000831

     Total force =     0.000685     Total SCF correction =     0.000000


     Computing stress (Cartesian axis) and pressure

          total   stress  (Ry/bohr**3)                   (kbar)     P=       -0.13
  -0.00000131   0.00000000   0.00000000           -0.19        0.00        0.00
   0.00000000  -0.00000120   0.00000000            0.00       -0.18        0.00
   0.00000000   0.00000000  -0.00000019            0.00        0.00       -0.03


     Writing output data file ./tmp/unit_tight.save/
 
     init_run     :     54.81s CPU     55.49s WALL (       2 calls)
     electrons    :   3988.66s CPU   4120.30s WALL (      16 calls)
     update_pot   :    371.80s CPU    373.09s WALL (      14 calls)
     forces       :    241.78s CPU    244.76s WALL (      16 calls)
     stress       :    735.94s CPU    742.13s WALL (      16 calls)

     Called by init_run:
     wfcinit      :     11.59s CPU     11.78s WALL (       2 calls)
     potinit      :     15.97s CPU     16.09s WALL (       2 calls)
     hinit0       :     25.25s CPU     25.37s WALL (       2 calls)

     Called by electrons:
     c_bands      :   2913.58s CPU   2977.24s WALL (     271 calls)
     sum_band     :    727.26s CPU    767.61s WALL (     271 calls)
     v_of_rho     :    166.90s CPU    169.19s WALL (     272 calls)
     newd         :    103.52s CPU    127.50s WALL (     272 calls)
     PAW_pot      :     39.64s CPU     39.77s WALL (     286 calls)
     mix_rho      :     36.29s CPU     36.69s WALL (     271 calls)

     Called by c_bands:
     init_us_2    :     59.73s CPU     60.13s WALL (    2950 calls)
     cegterg      :   2748.29s CPU   2810.44s WALL (    1355 calls)

     Called by *egterg:
     cdiaghg      :     52.84s CPU     53.18s WALL (    5478 calls)
     h_psi        :   2217.50s CPU   2254.42s WALL (    5633 calls)
     s_psi        :     95.29s CPU     95.68s WALL (    5633 calls)
     g_psi        :      9.60s CPU      9.68s WALL (    4268 calls)

     Called by h_psi:
     h_psi:calbec :     88.01s CPU     88.41s WALL (    5633 calls)
     vloc_psi     :   2008.99s CPU   2033.27s WALL (    5633 calls)
     add_vuspsi   :     94.00s CPU     94.41s WALL (    5633 calls)

     General routines
     calbec       :    129.21s CPU    129.81s WALL (    7458 calls)
     fft          :    162.48s CPU    164.34s WALL (    3933 calls)
     ffts         :      4.39s CPU      4.44s WALL (     543 calls)
     fftw         :   1925.91s CPU   1948.97s WALL (  765206 calls)
     interpolate  :     14.39s CPU     14.49s WALL (     272 calls)
 
     Parallel routines
     fft_scatt_xy :    473.77s CPU    479.22s WALL (  769682 calls)
     fft_scatt_yz :    476.55s CPU    482.51s WALL (  769682 calls)
 
     PWSCF        :      1h30m CPU      1h32m WALL

 
   This run was terminated on:  15:40: 2   7Oct2026            

=------------------------------------------------------------------------------=
   JOB DONE.
=------------------------------------------------------------------------------=
