
     Program PWSCF v.7.6 starts on  4Oct2026 at 17:12:30 

     This program is part of the open-source Quantum ESPRESSO suite
     for quantum simulation of materials; please cite
         "P. Giannozzi et al., J. Phys.:Condens. Matter 21 395502 (2009);
         "P. Giannozzi et al., J. Phys.:Condens. Matter 29 465901 (2017);
         "P. Giannozzi et al., J. Chem. Phys. 152 154105 (2020);
          URL http://www.quantum-espresso.org", 
     in publications or presentations arising from this work. More details at
     http://www.quantum-espresso.org/quote

     Parallel version (MPI), running on     6 processors

     MPI processes distributed on     1 nodes
     5099 MiB available memory on the printing compute node when the environment starts

     Reading input from conv/k443.in
Warning: card &CELL ignored
Warning: card   CELL_DYNAMICS  = 'BFGS' ignored
Warning: card   PRESS          = 0.0 ignored
Warning: card   PRESS_CONV_THR = 0.5 ignored
Warning: card   CELL_DOFREE    = 'ALL' ignored

     Current dimensions of program PWSCF are:
     Max number of different atomic species (ntypx) = 10
     Max number of k-points (npk) =  40000
     Max angular momentum in pseudopotentials (lmaxx) =  4
     file Pb.pbesol-dn-kjpaw_psl.0.2.2.UPF: wavefunction(s)  6S renormalized
     Message from routine setup:
     using ibrav=0 with symmetry is DISCOURAGED, use correct ibrav instead

     R & G space division:  proc/nbgrp/npool/nimage =       6
     Subspace diagonalization in iterative solution of the eigenvalue problem:
     a serial algorithm will be used


     Parallelization info
     --------------------
     sticks:   dense  smooth     PW     G-vecs:    dense   smooth      PW
     Min        1441     720    193               143941    50894    7161
     Max        1442     721    194               143944    50897    7166
     Sum        8649    4323   1163               863659   305373   42989

     Using Slab Decomposition



     bravais-lattice index     =            0
     lattice parameter (alat)  =      16.2074  a.u.
     unit-cell volume          =    6392.8915 (a.u.)^3
     number of atoms/cell      =           20
     number of atomic types    =            3
     number of electrons       =       176.00
     number of Kohn-Sham states=           88
     kinetic-energy cutoff     =      50.0000  Ry
     charge density cutoff     =     400.0000  Ry
     scf convergence threshold =      1.0E-07
     mixing beta               =       0.5000
     number of iterations used =            8  plain     mixing
     Exchange-correlation= SLA  PW   PSX  PSC
                           (   1   4  10   8   0   0   0)

     celldm(1)=  16.207425  celldm(2)=   0.000000  celldm(3)=   0.000000
     celldm(4)=   0.000000  celldm(5)=   0.000000  celldm(6)=   0.000000

     crystal axes: (cart. coord. in units of alat)
               a(1) = (   1.000000   0.000000   0.000000 )  
               a(2) = (   0.000000   1.032589   0.000000 )  
               a(3) = (   0.000000   0.000000   1.454213 )  

     reciprocal axes: (cart. coord. in units 2 pi/alat)
               b(1) = (  1.000000  0.000000  0.000000 )  
               b(2) = (  0.000000  0.968440  0.000000 )  
               b(3) = (  0.000000  0.000000  0.687657 )  


     PseudoPot. # 1 for Cs read from file:
     /home/duydao/pseudo_pbesol/cs_pbesol_v1.uspp.F.UPF
     MD5 check sum: ae4559e5c840913b791237f814e2d884
     Pseudo is Ultrasoft + core correction, Zval =  9.0
     Generated by new atomic code, or converted to UPF format
     Using radial grid of  905 points,  6 beta functions with: 
                l(1) =   0
                l(2) =   0
                l(3) =   1
                l(4) =   1
                l(5) =   2
                l(6) =   2
     Q(r) pseudized with  6 coefficients,  rinner =    1.500   1.500   1.500
                                                       1.500   1.500

     PseudoPot. # 2 for Pb read from file:
     /home/duydao/pseudo_pbesol/Pb.pbesol-dn-kjpaw_psl.0.2.2.UPF
     MD5 check sum: df0e0ac60519e244e20a4bf230ae894d
     Pseudo is Projector augmented-wave + core cor, Zval = 14.0
     Generated using "atomic" code by A. Dal Corso  v.6.0 svn rev. 13079
     Shape of augmentation charge: PSQ
     Using radial grid of 1281 points,  6 beta functions with: 
                l(1) =   0
                l(2) =   0
                l(3) =   1
                l(4) =   1
                l(5) =   2
                l(6) =   2
     Q(r) pseudized with 0 coefficients 


     PseudoPot. # 3 for I  read from file:
     /home/duydao/pseudo_pbesol/I.pbesol-n-kjpaw_psl.0.2.UPF
     MD5 check sum: cecf1a22a184a0b1ae701638a037a48d
     Pseudo is Projector augmented-wave + core cor, Zval =  7.0
     Generated using "atomic" code by A. Dal Corso  v.6.0 svn rev. 13079
     Shape of augmentation charge: PSQ
     Using radial grid of 1247 points,  4 beta functions with: 
                l(1) =   0
                l(2) =   0
                l(3) =   1
                l(4) =   1
     Q(r) pseudized with 0 coefficients 


     atomic species   valence    mass     pseudopotential
     Cs                9.00   132.90500     Cs( 1.00)
     Pb               14.00   207.20000     Pb( 1.00)
     I                 7.00   126.90400     I ( 1.00)

      8 Sym. Ops., with inversion, found ( 6 have fractional translation)



   Cartesian axes

     site n.     atom                  positions (alat units)
         1        Cs     tau(   1) = (   0.5050900   0.4749392   0.3635532  )
         2        Cs     tau(   2) = (   0.4949100   0.5576495   1.0906595  )
         3        Cs     tau(   3) = (   0.0050900   0.0413552   1.0906595  )
         4        Cs     tau(   4) = (   0.9949100   0.9912335   0.3635532  )
         5        Pb     tau(   5) = (   0.5000000   0.0000000   0.0000000  )
         6        Pb     tau(   6) = (   0.5000000   0.0000000   0.7271063  )
         7        Pb     tau(   7) = (   0.0000000   0.5162943   0.0000000  )
         8        Pb     tau(   8) = (   0.0000000   0.5162943   0.7271063  )
         9        I      tau(   9) = (   0.5620200   0.0011668   0.3635532  )
        10        I      tau(  10) = (   0.4379800   1.0314218   1.0906595  )
        11        I      tau(  11) = (   0.0620200   0.5151275   1.0906595  )
        12        I      tau(  12) = (   0.9379800   0.5174612   0.3635532  )
        13        I      tau(  13) = (   0.6973100   0.3153319   1.4021954  )
        14        I      tau(  14) = (   0.3026900   0.7172567   0.6750891  )
        15        I      tau(  15) = (   0.1973100   0.2009624   0.0520172  )
        16        I      tau(  16) = (   0.8026900   0.8316263   0.7791235  )
        17        I      tau(  17) = (   0.3026900   0.7172567   0.0520172  )
        18        I      tau(  18) = (   0.6973100   0.3153319   0.7791235  )
        19        I      tau(  19) = (   0.8026900   0.8316263   1.4021954  )
        20        I      tau(  20) = (   0.1973100   0.2009624   0.6750891  )

     number of k points=    18
                       cart. coord. in units 2pi/alat
        k(    1) = (   0.0000000   0.0000000   0.0000000), wk =   0.0416667
        k(    2) = (   0.0000000   0.0000000   0.2292191), wk =   0.0833333
        k(    3) = (   0.0000000   0.2421100   0.0000000), wk =   0.0833333
        k(    4) = (   0.0000000   0.2421100   0.2292191), wk =   0.1666667
        k(    5) = (   0.0000000  -0.4842199   0.0000000), wk =   0.0416667
        k(    6) = (   0.0000000  -0.4842199   0.2292191), wk =   0.0833333
        k(    7) = (   0.2500000   0.0000000   0.0000000), wk =   0.0833333
        k(    8) = (   0.2500000   0.0000000   0.2292191), wk =   0.1666667
        k(    9) = (   0.2500000   0.2421100   0.0000000), wk =   0.1666667
        k(   10) = (   0.2500000   0.2421100   0.2292191), wk =   0.3333333
        k(   11) = (   0.2500000  -0.4842199   0.0000000), wk =   0.0833333
        k(   12) = (   0.2500000  -0.4842199   0.2292191), wk =   0.1666667
        k(   13) = (  -0.5000000   0.0000000   0.0000000), wk =   0.0416667
        k(   14) = (  -0.5000000   0.0000000   0.2292191), wk =   0.0833333
        k(   15) = (  -0.5000000   0.2421100   0.0000000), wk =   0.0833333
        k(   16) = (  -0.5000000   0.2421100   0.2292191), wk =   0.1666667
        k(   17) = (  -0.5000000  -0.4842199   0.0000000), wk =   0.0416667
        k(   18) = (  -0.5000000  -0.4842199   0.2292191), wk =   0.0833333

     Dense  grid:   863659 G-vectors     FFT dimensions: ( 108, 108, 160)

     Smooth grid:   305373 G-vectors     FFT dimensions: (  80,  80, 108)

     Estimated max dynamical RAM per process >     764.30 MB

     Estimated total dynamical RAM >       4.48 GB

     Initial potential from superposition of free atoms

     starting charge     175.8397, renormalised to     176.0000
     Starting wfcs are  136 randomized atomic wfcs
     Checking if some PAW data can be deallocated... 

     total cpu time spent up to now is       79.8 secs

     Self-consistent Calculation

     iteration #  1     ecut=    50.00 Ry     beta= 0.50
     Davidson diagonalization with overlap
     ethr =  1.00E-02,  avg # of iterations =  1.8

     Threshold (ethr) on eigenvalues was too large:
     Diagonalizing with lowered threshold

     Davidson diagonalization with overlap
     ethr =  2.27E-04,  avg # of iterations =  5.2

     total cpu time spent up to now is      380.0 secs

     total energy              =   -8165.73691110 Ry
     estimated scf accuracy    <       0.35021242 Ry

     iteration #  2     ecut=    50.00 Ry     beta= 0.50
     Davidson diagonalization with overlap
     ethr =  1.99E-04,  avg # of iterations =  3.3

     total cpu time spent up to now is      551.8 secs

     total energy              =   -8165.83210294 Ry
     estimated scf accuracy    <       0.01450640 Ry

     iteration #  3     ecut=    50.00 Ry     beta= 0.50
     Davidson diagonalization with overlap
     ethr =  8.24E-06,  avg # of iterations =  4.9

     total cpu time spent up to now is      783.6 secs

     total energy              =   -8165.84258452 Ry
     estimated scf accuracy    <       0.00555300 Ry

     iteration #  4     ecut=    50.00 Ry     beta= 0.50
     Davidson diagonalization with overlap
     ethr =  3.16E-06,  avg # of iterations =  2.7

     total cpu time spent up to now is      962.0 secs

     total energy              =   -8165.84372209 Ry
     estimated scf accuracy    <       0.00059610 Ry

     iteration #  5     ecut=    50.00 Ry     beta= 0.50
     Davidson diagonalization with overlap
     ethr =  3.39E-07,  avg # of iterations =  4.3

     total cpu time spent up to now is     1176.0 secs

     total energy              =   -8165.84384911 Ry
     estimated scf accuracy    <       0.00033640 Ry

     iteration #  6     ecut=    50.00 Ry     beta= 0.50
     Davidson diagonalization with overlap
     ethr =  1.91E-07,  avg # of iterations =  1.6

     total cpu time spent up to now is     1309.9 secs

     total energy              =   -8165.84379310 Ry
     estimated scf accuracy    <       0.00018111 Ry

     iteration #  7     ecut=    50.00 Ry     beta= 0.50
     Davidson diagonalization with overlap
     ethr =  1.03E-07,  avg # of iterations =  4.1

     total cpu time spent up to now is     1519.2 secs

     total energy              =   -8165.84384700 Ry
     estimated scf accuracy    <       0.00004030 Ry

     iteration #  8     ecut=    50.00 Ry     beta= 0.50
     Davidson diagonalization with overlap
     ethr =  2.29E-08,  avg # of iterations =  1.8

     total cpu time spent up to now is     1658.3 secs

     total energy              =   -8165.84384175 Ry
     estimated scf accuracy    <       0.00001776 Ry

     iteration #  9     ecut=    50.00 Ry     beta= 0.50
     Davidson diagonalization with overlap
     ethr =  1.01E-08,  avg # of iterations =  4.1

     total cpu time spent up to now is     1868.3 secs

     total energy              =   -8165.84384708 Ry
     estimated scf accuracy    <       0.00000771 Ry

     iteration # 10     ecut=    50.00 Ry     beta= 0.50
     Davidson diagonalization with overlap
     ethr =  4.38E-09,  avg # of iterations =  1.7

     total cpu time spent up to now is     2003.9 secs

     total energy              =   -8165.84384649 Ry
     estimated scf accuracy    <       0.00000291 Ry

     iteration # 11     ecut=    50.00 Ry     beta= 0.50
     Davidson diagonalization with overlap
     ethr =  1.65E-09,  avg # of iterations =  4.4

     total cpu time spent up to now is     2193.0 secs

     End of self-consistent calculation

          k = 0.0000 0.0000 0.0000 ( 38185 PWs)   bands (ev):

   -17.5557 -17.5550 -17.5544 -17.5539 -13.2635 -13.2571 -13.2533 -13.2533
   -13.2491 -13.2421 -13.2332 -13.2332 -13.2042 -13.2042 -13.2036 -13.2036
   -13.1986 -13.1984 -13.1980 -13.1978 -13.1939 -13.1937 -13.1934 -13.1932
    -8.9434  -8.7243  -8.5284  -8.4758  -8.4663  -8.4053  -8.4012  -8.3900
    -8.3851  -8.2156  -8.1872  -8.1841  -5.1569  -4.6281  -4.4025  -4.4002
    -4.3927  -4.3809  -4.3795  -4.3773  -4.3711  -4.3707  -4.3706  -4.3614
    -4.3436  -4.3401  -4.1177  -3.6227  -0.2153  -0.1284  -0.1049  -0.0249
     0.0255   0.0385   0.9984   1.2378   1.2499   1.2553   1.2667   1.3834
     1.5647   1.7358   1.7628   1.7717   1.8227   1.8259   1.8783   1.9295
     1.9312   1.9313   1.9881   2.0182   2.0360   2.1581   2.2284   2.2450
     2.2506   2.2529   2.3325   2.4050   2.5009   2.5551   2.8156   3.2826

          k = 0.0000 0.0000 0.2292 ( 38177 PWs)   bands (ev):

   -17.5555 -17.5552 -17.5543 -17.5540 -13.2599 -13.2539 -13.2534 -13.2528
   -13.2527 -13.2458 -13.2332 -13.2332 -13.2041 -13.2040 -13.2038 -13.2037
   -13.1985 -13.1984 -13.1980 -13.1978 -13.1939 -13.1937 -13.1934 -13.1933
    -8.9062  -8.8069  -8.5133  -8.4821  -8.4024  -8.3989  -8.3945  -8.3894
    -8.3811  -8.2627  -8.1861  -8.1846  -5.0335  -4.7674  -4.4000  -4.3964
    -4.3935  -4.3785  -4.3752  -4.3699  -4.3667  -4.3652  -4.3635  -4.3605
    -4.3580  -4.3527  -4.0336  -3.7856  -0.1019  -0.0812  -0.0453  -0.0412
     0.2207   0.4197   0.9713   1.0528   1.1656   1.2682   1.2863   1.3104
     1.4019   1.4565   1.6936   1.7816   1.7911   1.8536   1.9036   1.9254
     1.9810   1.9915   1.9951   2.0035   2.0694   2.1380   2.1586   2.1744
     2.2288   2.2300   2.3070   2.3273   2.4627   2.4656   2.8446   2.9893

          k = 0.0000 0.2421 0.0000 ( 38140 PWs)   bands (ev):

   -17.5555 -17.5549 -17.5546 -17.5540 -13.2625 -13.2580 -13.2504 -13.2504
   -13.2481 -13.2431 -13.2362 -13.2361 -13.2042 -13.2041 -13.2036 -13.2036
   -13.1985 -13.1983 -13.1981 -13.1979 -13.1939 -13.1936 -13.1935 -13.1933
    -8.9038  -8.6821  -8.6424  -8.4748  -8.4662  -8.4474  -8.3710  -8.3566
    -8.3295  -8.2249  -8.2171  -8.2162  -5.0255  -4.5323  -4.4382  -4.4025
    -4.3929  -4.3875  -4.3776  -4.3724  -4.3674  -4.3669  -4.3635  -4.3612
    -4.3470  -4.3109  -4.2381  -3.7924  -0.1765  -0.0187   0.0417   0.1566
     0.1747   0.2643   1.0531   1.1466   1.1496   1.2229   1.2999   1.3004
     1.4027   1.4027   1.5948   1.6411   1.8396   1.8547   1.8628   1.9027
     1.9478   1.9971   2.0049   2.0147   2.0159   2.0747   2.1457   2.1555
     2.2271   2.2337   2.3432   2.3481   2.5048   2.5463   2.5859   2.9667

          k = 0.0000 0.2421 0.2292 ( 38195 PWs)   bands (ev):

   -17.5553 -17.5550 -17.5545 -17.5542 -13.2589 -13.2543 -13.2517 -13.2505
   -13.2503 -13.2467 -13.2362 -13.2362 -13.2040 -13.2040 -13.2038 -13.2037
   -13.1984 -13.1983 -13.1980 -13.1979 -13.1938 -13.1937 -13.1935 -13.1933
    -8.8670  -8.7679  -8.6156  -8.5452  -8.3832  -8.3831  -8.3664  -8.3600
    -8.3417  -8.2683  -8.2173  -8.2166  -4.9074  -4.6544  -4.4043  -4.3970
    -4.3883  -4.3805  -4.3780  -4.3753  -4.3656  -4.3656  -4.3580  -4.3575
    -4.3553  -4.3433  -4.1790  -3.9482   0.0711   0.1094   0.1340   0.2069
     0.3080   0.3708   0.9920   1.0866   1.1408   1.1601   1.1900   1.2628
     1.3475   1.4121   1.4712   1.6280   1.6673   1.7745   1.7824   1.8740
     1.8841   1.9527   1.9878   2.0069   2.1213   2.1322   2.1790   2.1838
     2.2091   2.2256   2.3035   2.3113   2.4750   2.4800   2.5634   2.6839

          k = 0.0000-0.4842 0.0000 ( 38174 PWs)   bands (ev):

   -17.5550 -17.5550 -17.5544 -17.5544 -13.2602 -13.2602 -13.2458 -13.2458
   -13.2433 -13.2433 -13.2431 -13.2431 -13.2042 -13.2042 -13.2036 -13.2036
   -13.1983 -13.1983 -13.1981 -13.1981 -13.1937 -13.1937 -13.1935 -13.1935
    -8.7939  -8.7939  -8.5721  -8.5721  -8.4713  -8.4713  -8.2969  -8.2969
    -8.2867  -8.2867  -8.2574  -8.2574  -4.7079  -4.7079  -4.4102  -4.4102
    -4.3816  -4.3816  -4.3725  -4.3725  -4.3671  -4.3671  -4.3598  -4.3598
    -4.3390  -4.3390  -4.1271  -4.1271  -0.1027  -0.1027   0.4828   0.4828
     0.6500   0.6500   0.7576   0.7576   0.9166   0.9166   1.1723   1.1723
     1.4292   1.4292   1.5969   1.5969   1.6926   1.6926   1.8872   1.8872
     1.9305   1.9305   2.0019   2.0019   2.0323   2.0323   2.1671   2.1671
     2.1850   2.1850   2.3003   2.3003   2.4326   2.4326   2.6742   2.6742

          k = 0.0000-0.4842 0.2292 ( 38212 PWs)   bands (ev):

   -17.5549 -17.5549 -17.5546 -17.5546 -13.2566 -13.2566 -13.2493 -13.2493
   -13.2433 -13.2433 -13.2433 -13.2433 -13.2040 -13.2040 -13.2038 -13.2038
   -13.1982 -13.1982 -13.1981 -13.1981 -13.1936 -13.1936 -13.1935 -13.1935
    -8.7595  -8.7595  -8.6657  -8.6657  -8.3796  -8.3796  -8.2952  -8.2952
    -8.2899  -8.2899  -8.2882  -8.2882  -4.6013  -4.6013  -4.4280  -4.4280
    -4.3836  -4.3836  -4.3785  -4.3785  -4.3676  -4.3676  -4.3590  -4.3590
    -4.3353  -4.3353  -4.2514  -4.2514   0.2609   0.2609   0.5194   0.5194
     0.5944   0.5944   0.8114   0.8114   0.8286   0.8286   1.0685   1.0685
     1.5045   1.5045   1.5759   1.5759   1.6566   1.6566   1.7333   1.7333
     1.7821   1.7821   1.8143   1.8143   2.1656   2.1656   2.2152   2.2152
     2.2393   2.2393   2.2802   2.2802   2.4321   2.4321   2.4795   2.4795

          k = 0.2500 0.0000 0.0000 ( 38178 PWs)   bands (ev):

   -17.5555 -17.5549 -17.5546 -17.5540 -13.2625 -13.2579 -13.2504 -13.2504
   -13.2481 -13.2431 -13.2362 -13.2361 -13.2042 -13.2042 -13.2036 -13.2036
   -13.1985 -13.1983 -13.1981 -13.1979 -13.1939 -13.1936 -13.1935 -13.1933
    -8.9047  -8.6811  -8.6435  -8.4756  -8.4680  -8.4427  -8.3770  -8.3611
    -8.3245  -8.2219  -8.2176  -8.2162  -5.0263  -4.5387  -4.4325  -4.3941
    -4.3922  -4.3861  -4.3856  -4.3804  -4.3727  -4.3686  -4.3577  -4.3559
    -4.3549  -4.2927  -4.2352  -3.7916  -0.1804  -0.0203   0.0541   0.1437
     0.1892   0.2646   1.0087   1.0541   1.1696   1.2098   1.3004   1.3005
     1.3381   1.4642   1.6239   1.7110   1.8233   1.8587   1.8787   1.9041
     1.9538   2.0336   2.0479   2.0488   2.0495   2.0670   2.0769   2.1976
     2.2352   2.2544   2.3646   2.3663   2.4310   2.5218   2.5625   2.9027

          k = 0.2500 0.0000 0.2292 ( 38157 PWs)   bands (ev):

   -17.5553 -17.5550 -17.5545 -17.5542 -13.2589 -13.2543 -13.2517 -13.2505
   -13.2503 -13.2467 -13.2362 -13.2362 -13.2040 -13.2040 -13.2038 -13.2037
   -13.1984 -13.1983 -13.1980 -13.1979 -13.1938 -13.1937 -13.1935 -13.1933
    -8.8676  -8.7679  -8.6161  -8.5448  -8.3863  -8.3831  -8.3719  -8.3624
    -8.3357  -8.2652  -8.2169  -8.2162  -4.9095  -4.6599  -4.4057  -4.3934
    -4.3893  -4.3864  -4.3728  -4.3695  -4.3684  -4.3647  -4.3597  -4.3595
    -4.3530  -4.3302  -4.1771  -3.9470   0.0822   0.0936   0.1506   0.2155
     0.2923   0.3665   0.9675   1.0294   1.0822   1.1799   1.1915   1.2052
     1.4083   1.4238   1.4702   1.5815   1.7514   1.7580   1.8692   1.8753
     1.9568   1.9740   2.0567   2.0661   2.0792   2.1233   2.1413   2.1786
     2.2301   2.2455   2.3035   2.3338   2.4174   2.4433   2.5228   2.6005

          k = 0.2500 0.2421 0.0000 ( 38197 PWs)   bands (ev):

   -17.5554 -17.5548 -17.5547 -17.5542 -13.2624 -13.2590 -13.2508 -13.2478
   -13.2456 -13.2444 -13.2379 -13.2370 -13.2042 -13.2042 -13.2036 -13.2036
   -13.1984 -13.1982 -13.1982 -13.1979 -13.1938 -13.1936 -13.1936 -13.1933
    -8.8693  -8.6777  -8.6402  -8.4769  -8.4705  -8.4216  -8.4071  -8.4045
    -8.2913  -8.2540  -8.2515  -8.1944  -4.9226  -4.4904  -4.4810  -4.3926
    -4.3882  -4.3822  -4.3806  -4.3734  -4.3678  -4.3667  -4.3607  -4.3555
    -4.3542  -4.2850  -4.2512  -3.8827  -0.1647  -0.0684  -0.0617   0.0941
     0.5470   0.6775   0.6876   0.8968   1.0838   1.1244   1.1529   1.3713
     1.4009   1.5400   1.6418   1.7760   1.7771   1.8571   1.8737   1.9163
     1.9381   1.9543   1.9823   1.9993   2.0524   2.1029   2.1358   2.1701
     2.1811   2.1857   2.2647   2.3287   2.4475   2.5469   2.5867   2.9063

          k = 0.2500 0.2421 0.2292 ( 38160 PWs)   bands (ev):

   -17.5552 -17.5549 -17.5546 -17.5543 -13.2590 -13.2554 -13.2528 -13.2485
   -13.2476 -13.2463 -13.2378 -13.2374 -13.2040 -13.2040 -13.2038 -13.2038
   -13.1984 -13.1983 -13.1981 -13.1980 -13.1938 -13.1936 -13.1935 -13.1934
    -8.8322  -8.7319  -8.6459  -8.5609  -8.4116  -8.4072  -8.3811  -8.3414
    -8.3049  -8.2758  -8.2462  -8.2195  -4.8108  -4.5787  -4.4314  -4.3936
    -4.3850  -4.3837  -4.3752  -4.3672  -4.3657  -4.3636  -4.3596  -4.3559
    -4.3520  -4.3127  -4.2465  -4.0338  -0.0377   0.0206   0.2175   0.3355
     0.5918   0.6114   0.7522   0.8167   0.9920   1.1059   1.1478   1.2002
     1.3950   1.4786   1.5306   1.6180   1.7089   1.7495   1.7987   1.8502
     1.8896   1.9618   2.0370   2.0506   2.0982   2.1320   2.1492   2.1659
     2.2076   2.2247   2.2655   2.3117   2.4111   2.4216   2.5393   2.6318

          k = 0.2500-0.4842 0.0000 ( 38140 PWs)   bands (ev):

   -17.5550 -17.5550 -17.5544 -17.5544 -13.2611 -13.2611 -13.2488 -13.2488
   -13.2424 -13.2424 -13.2401 -13.2401 -13.2042 -13.2042 -13.2036 -13.2036
   -13.1983 -13.1983 -13.1981 -13.1981 -13.1937 -13.1937 -13.1934 -13.1934
    -8.7769  -8.7769  -8.5344  -8.5344  -8.4745  -8.4745  -8.3665  -8.3665
    -8.3319  -8.3319  -8.2077  -8.2077  -4.6864  -4.6864  -4.4054  -4.4054
    -4.3819  -4.3819  -4.3713  -4.3713  -4.3633  -4.3633  -4.3617  -4.3617
    -4.3420  -4.3420  -4.0910  -4.0910  -0.1162  -0.1162   0.1632   0.1632
     0.3403   0.3403   1.0087   1.0087   1.0841   1.0841   1.2498   1.2498
     1.4805   1.4805   1.6948   1.6948   1.7970   1.7970   1.8832   1.8832
     1.9529   1.9529   2.0026   2.0026   2.0519   2.0519   2.1152   2.1152
     2.1357   2.1357   2.2311   2.2311   2.4696   2.4696   2.7066   2.7066

          k = 0.2500-0.4842 0.2292 ( 38154 PWs)   bands (ev):

   -17.5549 -17.5549 -17.5546 -17.5546 -13.2577 -13.2577 -13.2514 -13.2514
   -13.2422 -13.2422 -13.2412 -13.2412 -13.2040 -13.2040 -13.2038 -13.2038
   -13.1982 -13.1982 -13.1981 -13.1981 -13.1936 -13.1936 -13.1935 -13.1935
    -8.7408  -8.7408  -8.6421  -8.6421  -8.3961  -8.3961  -8.3704  -8.3704
    -8.3049  -8.3049  -8.2371  -8.2371  -4.5876  -4.5876  -4.4343  -4.4343
    -4.3787  -4.3787  -4.3746  -4.3746  -4.3621  -4.3621  -4.3550  -4.3550
    -4.3332  -4.3332  -4.2174  -4.2174   0.1707   0.1707   0.2326   0.2326
     0.3535   0.3535   1.0302   1.0302   1.0538   1.0538   1.0930   1.0930
     1.4134   1.4134   1.5876   1.5876   1.7241   1.7241   1.8245   1.8245
     1.9338   1.9338   1.9572   1.9572   2.1189   2.1189   2.1505   2.1505
     2.2136   2.2136   2.2401   2.2401   2.4376   2.4376   2.4654   2.4654

          k =-0.5000 0.0000 0.0000 ( 38160 PWs)   bands (ev):

   -17.5551 -17.5551 -17.5544 -17.5544 -13.2602 -13.2602 -13.2457 -13.2457
   -13.2433 -13.2433 -13.2431 -13.2431 -13.2042 -13.2042 -13.2036 -13.2036
   -13.1983 -13.1983 -13.1981 -13.1981 -13.1937 -13.1937 -13.1935 -13.1935
    -8.7959  -8.7959  -8.5689  -8.5689  -8.4731  -8.4731  -8.3065  -8.3065
    -8.2902  -8.2902  -8.2455  -8.2455  -4.7094  -4.7094  -4.4149  -4.4149
    -4.3816  -4.3816  -4.3778  -4.3778  -4.3674  -4.3674  -4.3568  -4.3568
    -4.3292  -4.3292  -4.1167  -4.1167  -0.1071  -0.1071   0.4808   0.4808
     0.6676   0.6676   0.7315   0.7315   0.9108   0.9108   1.1105   1.1105
     1.3948   1.3948   1.6506   1.6506   1.7585   1.7585   1.9076   1.9076
     1.9087   1.9087   2.0510   2.0510   2.0593   2.0593   2.1848   2.1848
     2.2516   2.2516   2.3011   2.3011   2.3246   2.3246   2.6092   2.6092

          k =-0.5000 0.0000 0.2292 ( 38168 PWs)   bands (ev):

   -17.5549 -17.5549 -17.5546 -17.5546 -13.2566 -13.2566 -13.2493 -13.2493
   -13.2433 -13.2433 -13.2433 -13.2433 -13.2040 -13.2040 -13.2038 -13.2038
   -13.1982 -13.1982 -13.1981 -13.1981 -13.1936 -13.1936 -13.1935 -13.1935
    -8.7613  -8.7613  -8.6648  -8.6648  -8.3812  -8.3812  -8.3112  -8.3112
    -8.2923  -8.2923  -8.2689  -8.2689  -4.6077  -4.6077  -4.4413  -4.4413
    -4.3820  -4.3820  -4.3766  -4.3766  -4.3697  -4.3697  -4.3528  -4.3528
    -4.3248  -4.3248  -4.2380  -4.2380   0.2543   0.2543   0.5150   0.5150
     0.6213   0.6213   0.7394   0.7394   0.8476   0.8476   1.0103   1.0103
     1.4592   1.4592   1.6394   1.6394   1.6605   1.6605   1.7644   1.7644
     1.8712   1.8712   1.9191   1.9191   2.1568   2.1568   2.2100   2.2100
     2.2474   2.2474   2.3104   2.3104   2.3320   2.3320   2.3876   2.3876

          k =-0.5000 0.2421 0.0000 ( 38198 PWs)   bands (ev):

   -17.5550 -17.5550 -17.5544 -17.5544 -13.2611 -13.2611 -13.2488 -13.2488
   -13.2424 -13.2424 -13.2401 -13.2401 -13.2042 -13.2042 -13.2036 -13.2036
   -13.1983 -13.1983 -13.1981 -13.1981 -13.1937 -13.1937 -13.1934 -13.1934
    -8.7780  -8.7780  -8.5322  -8.5322  -8.4756  -8.4756  -8.3671  -8.3671
    -8.3343  -8.3343  -8.2057  -8.2057  -4.6870  -4.6870  -4.4094  -4.4094
    -4.3808  -4.3808  -4.3707  -4.3707  -4.3670  -4.3670  -4.3607  -4.3607
    -4.3351  -4.3351  -4.0865  -4.0865  -0.1187  -0.1187   0.1612   0.1612
     0.3455   0.3455   0.9791   0.9791   1.0736   1.0736   1.2562   1.2562
     1.4673   1.4673   1.7005   1.7005   1.8378   1.8378   1.9019   1.9019
     1.9386   1.9386   2.0379   2.0379   2.0483   2.0483   2.1053   2.1053
     2.1725   2.1725   2.2207   2.2207   2.4401   2.4401   2.6790   2.6790

          k =-0.5000 0.2421 0.2292 ( 38150 PWs)   bands (ev):

   -17.5549 -17.5549 -17.5546 -17.5546 -13.2577 -13.2577 -13.2514 -13.2514
   -13.2422 -13.2422 -13.2412 -13.2412 -13.2040 -13.2040 -13.2038 -13.2038
   -13.1982 -13.1982 -13.1981 -13.1981 -13.1936 -13.1936 -13.1935 -13.1935
    -8.7418  -8.7418  -8.6415  -8.6415  -8.3991  -8.3991  -8.3686  -8.3686
    -8.3059  -8.3059  -8.2353  -8.2353  -4.5907  -4.5907  -4.4398  -4.4398
    -4.3797  -4.3797  -4.3721  -4.3721  -4.3636  -4.3636  -4.3525  -4.3525
    -4.3270  -4.3270  -4.2116  -4.2116   0.1694   0.1694   0.2324   0.2324
     0.3506   0.3506   0.9747   0.9747   1.0689   1.0689   1.0967   1.0967
     1.4027   1.4027   1.6005   1.6005   1.7260   1.7260   1.8801   1.8801
     1.9623   1.9623   2.0236   2.0236   2.0880   2.0880   2.1382   2.1382
     2.1977   2.1977   2.2459   2.2459   2.4114   2.4114   2.4250   2.4250

          k =-0.5000-0.4842 0.0000 ( 38168 PWs)   bands (ev):

   -17.5550 -17.5550 -17.5544 -17.5544 -13.2619 -13.2619 -13.2504 -13.2504
   -13.2416 -13.2416 -13.2385 -13.2385 -13.2042 -13.2042 -13.2036 -13.2036
   -13.1983 -13.1983 -13.1981 -13.1981 -13.1937 -13.1937 -13.1934 -13.1934
    -8.7571  -8.7571  -8.4803  -8.4803  -8.4528  -8.4528  -8.4211  -8.4211
    -8.4091  -8.4091  -8.1852  -8.1852  -4.6647  -4.6647  -4.4042  -4.4042
    -4.3801  -4.3801  -4.3662  -4.3662  -4.3628  -4.3628  -4.3567  -4.3567
    -4.3476  -4.3476  -4.0573  -4.0573  -0.1352  -0.1352  -0.0163  -0.0163
     0.1841   0.1841   0.9815   0.9815   1.1641   1.1641   1.5092   1.5092
     1.5324   1.5324   1.7448   1.7448   1.7559   1.7559   1.8969   1.8969
     1.9436   1.9436   1.9891   1.9891   2.0447   2.0447   2.0517   2.0517
     2.0649   2.0649   2.3121   2.3121   2.5307   2.5307   2.7914   2.7914

          k =-0.5000-0.4842 0.2292 ( 38188 PWs)   bands (ev):

   -17.5549 -17.5549 -17.5546 -17.5546 -13.2587 -13.2587 -13.2528 -13.2528
   -13.2412 -13.2412 -13.2398 -13.2398 -13.2040 -13.2040 -13.2038 -13.2038
   -13.1982 -13.1982 -13.1981 -13.1981 -13.1936 -13.1936 -13.1935 -13.1935
    -8.7187  -8.7187  -8.6125  -8.6125  -8.4196  -8.4196  -8.4169  -8.4169
    -8.3176  -8.3176  -8.2194  -8.2194  -4.5742  -4.5742  -4.4386  -4.4386
    -4.3748  -4.3748  -4.3714  -4.3714  -4.3567  -4.3567  -4.3488  -4.3488
    -4.3302  -4.3302  -4.1859  -4.1859   0.0202   0.0202   0.0770   0.0770
     0.3102   0.3102   1.0585   1.0585   1.0597   1.0597   1.1968   1.1968
     1.4916   1.4916   1.5847   1.5847   1.8315   1.8315   1.9333   1.9333
     1.9609   1.9609   1.9623   1.9623   2.0388   2.0388   2.0397   2.0397
     2.1638   2.1638   2.2976   2.2976   2.5014   2.5014   2.5594   2.5594

     highest occupied level (ev):     3.2826

!    total energy              =   -8165.84384715 Ry
     estimated scf accuracy    <       0.00000003 Ry

     The total energy is the sum of the following terms:
     one-electron contribution =    -334.81854872 Ry
     hartree contribution      =     254.94556317 Ry
     xc contribution           =    -792.71223601 Ry
     ewald contribution        =    -643.62751295 Ry
     one-center paw contrib.   =   -6649.63111263 Ry

     convergence has been achieved in  11 iterations

     Forces acting on atoms (cartesian axes, Ry/au):

     atom    1 type  1   force =    -0.00326008   -0.00497260   -0.00000000
     atom    2 type  1   force =     0.00326008    0.00497260    0.00000000
     atom    3 type  1   force =    -0.00326008    0.00497260    0.00000000
     atom    4 type  1   force =     0.00326008   -0.00497260   -0.00000000
     atom    5 type  2   force =     0.00000000    0.00000000    0.00000000
     atom    6 type  2   force =     0.00000000   -0.00000000    0.00000000
     atom    7 type  2   force =    -0.00000000    0.00000000    0.00000000
     atom    8 type  2   force =     0.00000000    0.00000000   -0.00000000
     atom    9 type  3   force =    -0.00105754    0.00224395    0.00000000
     atom   10 type  3   force =     0.00105754   -0.00224395    0.00000000
     atom   11 type  3   force =    -0.00105754   -0.00224395    0.00000000
     atom   12 type  3   force =     0.00105754    0.00224395    0.00000000
     atom   13 type  3   force =    -0.00367474   -0.00463206    0.00152832
     atom   14 type  3   force =     0.00367474    0.00463206    0.00152832
     atom   15 type  3   force =    -0.00367474    0.00463206   -0.00152832
     atom   16 type  3   force =     0.00367474   -0.00463206   -0.00152832
     atom   17 type  3   force =     0.00367474    0.00463206   -0.00152832
     atom   18 type  3   force =    -0.00367474   -0.00463206   -0.00152832
     atom   19 type  3   force =     0.00367474   -0.00463206    0.00152832
     atom   20 type  3   force =    -0.00367474    0.00463206    0.00152832

     Total force =     0.021550     Total SCF correction =     0.000029


     Computing stress (Cartesian axis) and pressure

          total   stress  (Ry/bohr**3)                   (kbar)     P=       -1.57
   0.00001032   0.00000000   0.00000000            1.52        0.00        0.00
   0.00000000  -0.00003430   0.00000000            0.00       -5.05        0.00
   0.00000000   0.00000000  -0.00000801            0.00        0.00       -1.18


     Writing all to output data dir ./tmp/conv_k443.save/ :
     XML data file, charge density, pseudopotentials, collected wavefunctions

     init_run     :     77.96s CPU     79.48s WALL (       1 calls)
     electrons    :   2081.96s CPU   2113.26s WALL (       1 calls)
     forces       :     41.49s CPU     42.44s WALL (       1 calls)
     stress       :    135.46s CPU    137.56s WALL (       1 calls)

     Called by init_run:
     wfcinit      :     73.03s CPU     73.64s WALL (       1 calls)
     potinit      :      1.70s CPU      1.76s WALL (       1 calls)
     hinit0       :      0.61s CPU      0.66s WALL (       1 calls)

     Called by electrons:
     c_bands      :   1847.82s CPU   1859.81s WALL (      12 calls)
     sum_band     :    194.91s CPU    206.85s WALL (      12 calls)
     v_of_rho     :      3.80s CPU      3.94s WALL (      12 calls)
     newd         :     27.24s CPU     35.16s WALL (      12 calls)
     PAW_pot      :     10.52s CPU     10.54s WALL (      12 calls)
     mix_rho      :      0.70s CPU      0.73s WALL (      12 calls)

     Called by c_bands:
     init_us_2    :      9.44s CPU      9.46s WALL (     486 calls)
     cegterg      :   1828.59s CPU   1840.55s WALL (     216 calls)

     Called by *egterg:
     cdiaghg      :     21.99s CPU     22.01s WALL (     911 calls)
     h_psi        :    810.63s CPU    821.69s WALL (     947 calls)
     s_psi        :    276.27s CPU    276.35s WALL (     947 calls)
     g_psi        :      3.16s CPU      3.17s WALL (     713 calls)

     Called by h_psi:
     h_psi:calbec :    294.14s CPU    294.37s WALL (     947 calls)
     vloc_psi     :    238.74s CPU    248.99s WALL (     947 calls)
     add_vuspsi   :    275.79s CPU    275.82s WALL (     947 calls)

     General routines
     calbec       :    549.83s CPU    550.18s WALL (    1469 calls)
     fft          :      3.86s CPU      4.09s WALL (     180 calls)
     ffts         :      0.42s CPU      0.42s WALL (      24 calls)
     fftw         :    248.55s CPU    259.09s WALL (  123350 calls)
     interpolate  :      0.62s CPU      0.64s WALL (      12 calls)

     Parallel routines

     PWSCF        :  38m57.71s CPU  39m34.19s WALL


   This run was terminated on:  17:52: 4   4Oct2026            

=------------------------------------------------------------------------------=
   JOB DONE.
=------------------------------------------------------------------------------=
