
     Program PWSCF v.7.6 starts on  4Oct2026 at 17:52: 4 

     This program is part of the open-source Quantum ESPRESSO suite
     for quantum simulation of materials; please cite
         "P. Giannozzi et al., J. Phys.:Condens. Matter 21 395502 (2009);
         "P. Giannozzi et al., J. Phys.:Condens. Matter 29 465901 (2017);
         "P. Giannozzi et al., J. Chem. Phys. 152 154105 (2020);
          URL http://www.quantum-espresso.org", 
     in publications or presentations arising from this work. More details at
     http://www.quantum-espresso.org/quote

     Parallel version (MPI), running on     6 processors

     MPI processes distributed on     1 nodes
     4118 MiB available memory on the printing compute node when the environment starts

     Reading input from conv/k554.in
Warning: card &CELL ignored
Warning: card   CELL_DYNAMICS  = 'BFGS' ignored
Warning: card   PRESS          = 0.0 ignored
Warning: card   PRESS_CONV_THR = 0.5 ignored
Warning: card   CELL_DOFREE    = 'ALL' ignored

     Current dimensions of program PWSCF are:
     Max number of different atomic species (ntypx) = 10
     Max number of k-points (npk) =  40000
     Max angular momentum in pseudopotentials (lmaxx) =  4
     file Pb.pbesol-dn-kjpaw_psl.0.2.2.UPF: wavefunction(s)  6S renormalized
     Message from routine setup:
     using ibrav=0 with symmetry is DISCOURAGED, use correct ibrav instead

     R & G space division:  proc/nbgrp/npool/nimage =       6
     Subspace diagonalization in iterative solution of the eigenvalue problem:
     a serial algorithm will be used


     Parallelization info
     --------------------
     sticks:   dense  smooth     PW     G-vecs:    dense   smooth      PW
     Min        1441     720    193               143941    50894    7073
     Max        1442     721    194               143944    50897    7076
     Sum        8649    4323   1159               863659   305373   42441

     Using Slab Decomposition



     bravais-lattice index     =            0
     lattice parameter (alat)  =      16.2074  a.u.
     unit-cell volume          =    6392.8915 (a.u.)^3
     number of atoms/cell      =           20
     number of atomic types    =            3
     number of electrons       =       176.00
     number of Kohn-Sham states=           88
     kinetic-energy cutoff     =      50.0000  Ry
     charge density cutoff     =     400.0000  Ry
     scf convergence threshold =      1.0E-07
     mixing beta               =       0.5000
     number of iterations used =            8  plain     mixing
     Exchange-correlation= SLA  PW   PSX  PSC
                           (   1   4  10   8   0   0   0)

     celldm(1)=  16.207425  celldm(2)=   0.000000  celldm(3)=   0.000000
     celldm(4)=   0.000000  celldm(5)=   0.000000  celldm(6)=   0.000000

     crystal axes: (cart. coord. in units of alat)
               a(1) = (   1.000000   0.000000   0.000000 )  
               a(2) = (   0.000000   1.032589   0.000000 )  
               a(3) = (   0.000000   0.000000   1.454213 )  

     reciprocal axes: (cart. coord. in units 2 pi/alat)
               b(1) = (  1.000000  0.000000  0.000000 )  
               b(2) = (  0.000000  0.968440  0.000000 )  
               b(3) = (  0.000000  0.000000  0.687657 )  


     PseudoPot. # 1 for Cs read from file:
     /home/duydao/pseudo_pbesol/cs_pbesol_v1.uspp.F.UPF
     MD5 check sum: ae4559e5c840913b791237f814e2d884
     Pseudo is Ultrasoft + core correction, Zval =  9.0
     Generated by new atomic code, or converted to UPF format
     Using radial grid of  905 points,  6 beta functions with: 
                l(1) =   0
                l(2) =   0
                l(3) =   1
                l(4) =   1
                l(5) =   2
                l(6) =   2
     Q(r) pseudized with  6 coefficients,  rinner =    1.500   1.500   1.500
                                                       1.500   1.500

     PseudoPot. # 2 for Pb read from file:
     /home/duydao/pseudo_pbesol/Pb.pbesol-dn-kjpaw_psl.0.2.2.UPF
     MD5 check sum: df0e0ac60519e244e20a4bf230ae894d
     Pseudo is Projector augmented-wave + core cor, Zval = 14.0
     Generated using "atomic" code by A. Dal Corso  v.6.0 svn rev. 13079
     Shape of augmentation charge: PSQ
     Using radial grid of 1281 points,  6 beta functions with: 
                l(1) =   0
                l(2) =   0
                l(3) =   1
                l(4) =   1
                l(5) =   2
                l(6) =   2
     Q(r) pseudized with 0 coefficients 


     PseudoPot. # 3 for I  read from file:
     /home/duydao/pseudo_pbesol/I.pbesol-n-kjpaw_psl.0.2.UPF
     MD5 check sum: cecf1a22a184a0b1ae701638a037a48d
     Pseudo is Projector augmented-wave + core cor, Zval =  7.0
     Generated using "atomic" code by A. Dal Corso  v.6.0 svn rev. 13079
     Shape of augmentation charge: PSQ
     Using radial grid of 1247 points,  4 beta functions with: 
                l(1) =   0
                l(2) =   0
                l(3) =   1
                l(4) =   1
     Q(r) pseudized with 0 coefficients 


     atomic species   valence    mass     pseudopotential
     Cs                9.00   132.90500     Cs( 1.00)
     Pb               14.00   207.20000     Pb( 1.00)
     I                 7.00   126.90400     I ( 1.00)

      8 Sym. Ops., with inversion, found ( 6 have fractional translation)



   Cartesian axes

     site n.     atom                  positions (alat units)
         1        Cs     tau(   1) = (   0.5050900   0.4749392   0.3635532  )
         2        Cs     tau(   2) = (   0.4949100   0.5576495   1.0906595  )
         3        Cs     tau(   3) = (   0.0050900   0.0413552   1.0906595  )
         4        Cs     tau(   4) = (   0.9949100   0.9912335   0.3635532  )
         5        Pb     tau(   5) = (   0.5000000   0.0000000   0.0000000  )
         6        Pb     tau(   6) = (   0.5000000   0.0000000   0.7271063  )
         7        Pb     tau(   7) = (   0.0000000   0.5162943   0.0000000  )
         8        Pb     tau(   8) = (   0.0000000   0.5162943   0.7271063  )
         9        I      tau(   9) = (   0.5620200   0.0011668   0.3635532  )
        10        I      tau(  10) = (   0.4379800   1.0314218   1.0906595  )
        11        I      tau(  11) = (   0.0620200   0.5151275   1.0906595  )
        12        I      tau(  12) = (   0.9379800   0.5174612   0.3635532  )
        13        I      tau(  13) = (   0.6973100   0.3153319   1.4021954  )
        14        I      tau(  14) = (   0.3026900   0.7172567   0.6750891  )
        15        I      tau(  15) = (   0.1973100   0.2009624   0.0520172  )
        16        I      tau(  16) = (   0.8026900   0.8316263   0.7791235  )
        17        I      tau(  17) = (   0.3026900   0.7172567   0.0520172  )
        18        I      tau(  18) = (   0.6973100   0.3153319   0.7791235  )
        19        I      tau(  19) = (   0.8026900   0.8316263   1.4021954  )
        20        I      tau(  20) = (   0.1973100   0.2009624   0.6750891  )

     number of k points=    27
                       cart. coord. in units 2pi/alat
        k(    1) = (   0.0000000   0.0000000   0.0000000), wk =   0.0200000
        k(    2) = (   0.0000000   0.0000000   0.1719143), wk =   0.0400000
        k(    3) = (   0.0000000   0.0000000  -0.3438287), wk =   0.0200000
        k(    4) = (   0.0000000   0.1936880   0.0000000), wk =   0.0400000
        k(    5) = (   0.0000000   0.1936880   0.1719143), wk =   0.0800000
        k(    6) = (   0.0000000   0.1936880  -0.3438287), wk =   0.0400000
        k(    7) = (   0.0000000   0.3873759   0.0000000), wk =   0.0400000
        k(    8) = (   0.0000000   0.3873759   0.1719143), wk =   0.0800000
        k(    9) = (   0.0000000   0.3873759  -0.3438287), wk =   0.0400000
        k(   10) = (   0.2000000   0.0000000   0.0000000), wk =   0.0400000
        k(   11) = (   0.2000000   0.0000000   0.1719143), wk =   0.0800000
        k(   12) = (   0.2000000   0.0000000  -0.3438287), wk =   0.0400000
        k(   13) = (   0.2000000   0.1936880   0.0000000), wk =   0.0800000
        k(   14) = (   0.2000000   0.1936880   0.1719143), wk =   0.1600000
        k(   15) = (   0.2000000   0.1936880  -0.3438287), wk =   0.0800000
        k(   16) = (   0.2000000   0.3873759   0.0000000), wk =   0.0800000
        k(   17) = (   0.2000000   0.3873759   0.1719143), wk =   0.1600000
        k(   18) = (   0.2000000   0.3873759  -0.3438287), wk =   0.0800000
        k(   19) = (   0.4000000   0.0000000   0.0000000), wk =   0.0400000
        k(   20) = (   0.4000000   0.0000000   0.1719143), wk =   0.0800000
        k(   21) = (   0.4000000   0.0000000  -0.3438287), wk =   0.0400000
        k(   22) = (   0.4000000   0.1936880   0.0000000), wk =   0.0800000
        k(   23) = (   0.4000000   0.1936880   0.1719143), wk =   0.1600000
        k(   24) = (   0.4000000   0.1936880  -0.3438287), wk =   0.0800000
        k(   25) = (   0.4000000   0.3873759   0.0000000), wk =   0.0800000
        k(   26) = (   0.4000000   0.3873759   0.1719143), wk =   0.1600000
        k(   27) = (   0.4000000   0.3873759  -0.3438287), wk =   0.0800000

     Dense  grid:   863659 G-vectors     FFT dimensions: ( 108, 108, 160)

     Smooth grid:   305373 G-vectors     FFT dimensions: (  80,  80, 108)

     Estimated max dynamical RAM per process >     841.17 MB

     Estimated total dynamical RAM >       4.93 GB

     Initial potential from superposition of free atoms

     starting charge     175.8397, renormalised to     176.0000
     Starting wfcs are  136 randomized atomic wfcs
     Checking if some PAW data can be deallocated... 

     total cpu time spent up to now is      117.7 secs

     Self-consistent Calculation

     iteration #  1     ecut=    50.00 Ry     beta= 0.50
     Davidson diagonalization with overlap
     ethr =  1.00E-02,  avg # of iterations =  1.8

     Threshold (ethr) on eigenvalues was too large:
     Diagonalizing with lowered threshold

     Davidson diagonalization with overlap
     ethr =  2.27E-04,  avg # of iterations =  5.1

     total cpu time spent up to now is      564.8 secs

     total energy              =   -8165.73641756 Ry
     estimated scf accuracy    <       0.35012931 Ry

     iteration #  2     ecut=    50.00 Ry     beta= 0.50
     Davidson diagonalization with overlap
     ethr =  1.99E-04,  avg # of iterations =  3.6

     total cpu time spent up to now is      822.1 secs

     total energy              =   -8165.83259880 Ry
     estimated scf accuracy    <       0.01472636 Ry

     iteration #  3     ecut=    50.00 Ry     beta= 0.50
     Davidson diagonalization with overlap
     ethr =  8.37E-06,  avg # of iterations =  5.0

     total cpu time spent up to now is     1163.5 secs

     total energy              =   -8165.84295536 Ry
     estimated scf accuracy    <       0.00542282 Ry

     iteration #  4     ecut=    50.00 Ry     beta= 0.50
     Davidson diagonalization with overlap
     ethr =  3.08E-06,  avg # of iterations =  2.8

     total cpu time spent up to now is     1429.0 secs

     total energy              =   -8165.84404886 Ry
     estimated scf accuracy    <       0.00059743 Ry

     iteration #  5     ecut=    50.00 Ry     beta= 0.50
     Davidson diagonalization with overlap
     ethr =  3.39E-07,  avg # of iterations =  4.3

     total cpu time spent up to now is     1742.3 secs

     total energy              =   -8165.84417755 Ry
     estimated scf accuracy    <       0.00031967 Ry

     iteration #  6     ecut=    50.00 Ry     beta= 0.50
     Davidson diagonalization with overlap
     ethr =  1.82E-07,  avg # of iterations =  1.5

     total cpu time spent up to now is     1935.6 secs

     total energy              =   -8165.84412220 Ry
     estimated scf accuracy    <       0.00018260 Ry

     iteration #  7     ecut=    50.00 Ry     beta= 0.50
     Davidson diagonalization with overlap
     ethr =  1.04E-07,  avg # of iterations =  4.0

     total cpu time spent up to now is     2242.4 secs

     total energy              =   -8165.84417450 Ry
     estimated scf accuracy    <       0.00003466 Ry

     iteration #  8     ecut=    50.00 Ry     beta= 0.50
     Davidson diagonalization with overlap
     ethr =  1.97E-08,  avg # of iterations =  3.1

     total cpu time spent up to now is     2457.9 secs

     total energy              =   -8165.84417023 Ry
     estimated scf accuracy    <       0.00001729 Ry

     iteration #  9     ecut=    50.00 Ry     beta= 0.50
     Davidson diagonalization with overlap
     ethr =  9.82E-09,  avg # of iterations =  4.2

     total cpu time spent up to now is     2744.5 secs

     total energy              =   -8165.84417494 Ry
     estimated scf accuracy    <       0.00000448 Ry

     iteration # 10     ecut=    50.00 Ry     beta= 0.50
     Davidson diagonalization with overlap
     ethr =  2.55E-09,  avg # of iterations =  2.7

     total cpu time spent up to now is     2959.5 secs

     total energy              =   -8165.84417445 Ry
     estimated scf accuracy    <       0.00000254 Ry

     iteration # 11     ecut=    50.00 Ry     beta= 0.50
     Davidson diagonalization with overlap
     ethr =  1.44E-09,  avg # of iterations =  3.2

     total cpu time spent up to now is     3194.3 secs

     total energy              =   -8165.84417471 Ry
     estimated scf accuracy    <       0.00000015 Ry

     iteration # 12     ecut=    50.00 Ry     beta= 0.50
     Davidson diagonalization with overlap
     ethr =  8.37E-11,  avg # of iterations =  8.4

     total cpu time spent up to now is     3875.4 secs

     total energy              =   -8165.84417502 Ry
     estimated scf accuracy    <       0.00000038 Ry

     iteration # 13     ecut=    50.00 Ry     beta= 0.50
     Davidson diagonalization with overlap
     ethr =  8.37E-11,  avg # of iterations =  2.0

     total cpu time spent up to now is     4084.3 secs

     total energy              =   -8165.84417502 Ry
     estimated scf accuracy    <       0.00000015 Ry

     iteration # 14     ecut=    50.00 Ry     beta= 0.50
     Davidson diagonalization with overlap
     ethr =  8.37E-11,  avg # of iterations =  2.0

     total cpu time spent up to now is     4298.8 secs

     End of self-consistent calculation

          k = 0.0000 0.0000 0.0000 ( 38185 PWs)   bands (ev):

   -17.5558 -17.5552 -17.5546 -17.5540 -13.2625 -13.2561 -13.2527 -13.2526
   -13.2481 -13.2411 -13.2325 -13.2325 -13.2032 -13.2032 -13.2027 -13.2026
   -13.1977 -13.1976 -13.1972 -13.1970 -13.1931 -13.1928 -13.1926 -13.1924
    -8.9437  -8.7240  -8.5299  -8.4774  -8.4678  -8.4051  -8.4010  -8.3897
    -8.3848  -8.2165  -8.1869  -8.1839  -5.1563  -4.6277  -4.4027  -4.4003
    -4.3928  -4.3809  -4.3796  -4.3774  -4.3712  -4.3708  -4.3707  -4.3615
    -4.3437  -4.3402  -4.1173  -3.6221  -0.2159  -0.1281  -0.1047  -0.0248
     0.0258   0.0379   0.9986   1.2380   1.2494   1.2550   1.2669   1.3829
     1.5639   1.7352   1.7630   1.7720   1.8226   1.8248   1.8786   1.9298
     1.9304   1.9305   1.9879   2.0184   2.0351   2.1583   2.2284   2.2444
     2.2505   2.2528   2.3325   2.4046   2.5007   2.5548   2.8159   3.2825

          k = 0.0000 0.0000 0.1719 ( 38165 PWs)   bands (ev):

   -17.5557 -17.5553 -17.5545 -17.5541 -13.2604 -13.2540 -13.2527 -13.2524
   -13.2502 -13.2433 -13.2325 -13.2325 -13.2032 -13.2031 -13.2028 -13.2027
   -13.1977 -13.1976 -13.1972 -13.1970 -13.1931 -13.1929 -13.1926 -13.1924
    -8.9226  -8.7779  -8.5211  -8.4770  -8.4182  -8.4035  -8.3977  -8.3924
    -8.3873  -8.2435  -8.1862  -8.1841  -5.0848  -4.7090  -4.4012  -4.3966
    -4.3959  -4.3779  -4.3745  -4.3703  -4.3698  -4.3687  -4.3656  -4.3629
    -4.3527  -4.3492  -4.0717  -3.7212  -0.1128  -0.0908  -0.0569  -0.0330
     0.0839   0.2553   1.0301   1.1076   1.1953   1.2701   1.2861   1.3559
     1.4919   1.5341   1.6961   1.7623   1.8132   1.8488   1.8854   1.9290
     1.9836   1.9839   2.0100   2.0122   2.0190   2.1465   2.1564   2.1858
     2.2373   2.2377   2.3233   2.3612   2.4759   2.4831   2.8314   3.0659

          k = 0.0000 0.0000-0.3438 ( 38134 PWs)   bands (ev):

   -17.5555 -17.5555 -17.5543 -17.5543 -13.2553 -13.2553 -13.2527 -13.2527
   -13.2485 -13.2485 -13.2325 -13.2325 -13.2030 -13.2030 -13.2029 -13.2029
   -13.1976 -13.1976 -13.1971 -13.1971 -13.1930 -13.1930 -13.1925 -13.1925
    -8.8624  -8.8624  -8.4993  -8.4993  -8.3984  -8.3984  -8.3933  -8.3933
    -8.3176  -8.3176  -8.1850  -8.1850  -4.9032  -4.9032  -4.3981  -4.3981
    -4.3861  -4.3861  -4.3716  -4.3716  -4.3638  -4.3638  -4.3609  -4.3609
    -4.3585  -4.3585  -3.9212  -3.9212  -0.0739  -0.0739  -0.0573  -0.0573
     0.6008   0.6008   0.8318   0.8318   1.1107   1.1107   1.3288   1.3288
     1.3765   1.3765   1.7334   1.7334   1.8240   1.8240   1.9385   1.9385
     1.9507   1.9507   1.9923   1.9923   2.1580   2.1580   2.1707   2.1707
     2.2440   2.2440   2.2466   2.2466   2.4520   2.4520   2.8929   2.8929

          k = 0.0000 0.1937 0.0000 ( 38142 PWs)   bands (ev):

   -17.5557 -17.5550 -17.5547 -17.5541 -13.2619 -13.2566 -13.2508 -13.2507
   -13.2474 -13.2418 -13.2345 -13.2344 -13.2032 -13.2032 -13.2027 -13.2027
   -13.1977 -13.1975 -13.1972 -13.1970 -13.1931 -13.1928 -13.1927 -13.1925
    -8.9182  -8.6966  -8.6124  -8.4768  -8.4670  -8.4276  -8.3813  -8.3662
    -8.3482  -8.2223  -8.2058  -8.2054  -5.0707  -4.5639  -4.4161  -4.4028
    -4.3953  -4.3892  -4.3784  -4.3730  -4.3683  -4.3681  -4.3637  -4.3631
    -4.3458  -4.3226  -4.2016  -3.7351  -0.1887  -0.0184  -0.0075   0.0684
     0.1117   0.1802   1.0477   1.1689   1.2244   1.2696   1.2869   1.2893
     1.3969   1.5364   1.6565   1.6799   1.8279   1.8373   1.8767   1.9070
     1.9185   1.9833   2.0034   2.0218   2.0400   2.1115   2.1559   2.1676
     2.2332   2.2433   2.3480   2.3663   2.5098   2.5768   2.6183   3.0525

          k = 0.0000 0.1937 0.1719 ( 38149 PWs)   bands (ev):

   -17.5556 -17.5551 -17.5546 -17.5542 -13.2598 -13.2545 -13.2508 -13.2507
   -13.2495 -13.2439 -13.2345 -13.2344 -13.2032 -13.2031 -13.2028 -13.2027
   -13.1977 -13.1975 -13.1972 -13.1970 -13.1931 -13.1929 -13.1927 -13.1925
    -8.8972  -8.7524  -8.5985  -8.5076  -8.4165  -8.3970  -8.3787  -8.3685
    -8.3527  -8.2479  -8.2059  -8.2054  -5.0012  -4.6383  -4.4037  -4.3976
    -4.3922  -4.3835  -4.3777  -4.3749  -4.3675  -4.3673  -4.3602  -4.3602
    -4.3511  -4.3411  -4.1654  -3.8311  -0.0024  -0.0019   0.0826   0.1052
     0.1831   0.2266   1.0706   1.1093   1.1638   1.2717   1.2833   1.3026
     1.3564   1.4570   1.5405   1.6493   1.7236   1.8359   1.8454   1.8685
     1.9494   1.9783   2.0239   2.0342   2.0555   2.0866   2.1699   2.1713
     2.2071   2.2321   2.3272   2.3411   2.4895   2.4970   2.6284   2.8420

          k = 0.0000 0.1937-0.3438 ( 38136 PWs)   bands (ev):

   -17.5554 -17.5554 -17.5544 -17.5544 -13.2546 -13.2546 -13.2509 -13.2509
   -13.2490 -13.2490 -13.2345 -13.2345 -13.2030 -13.2030 -13.2029 -13.2029
   -13.1976 -13.1976 -13.1971 -13.1971 -13.1930 -13.1930 -13.1926 -13.1926
    -8.8373  -8.8373  -8.5602  -8.5602  -8.3743  -8.3743  -8.3679  -8.3679
    -8.3188  -8.3188  -8.2057  -8.2057  -4.8247  -4.8247  -4.3975  -4.3975
    -4.3841  -4.3841  -4.3704  -4.3704  -4.3653  -4.3653  -4.3580  -4.3580
    -4.3577  -4.3577  -4.0254  -4.0254   0.0400   0.0400   0.0991   0.0991
     0.6273   0.6273   0.7875   0.7875   1.1241   1.1241   1.3059   1.3059
     1.3502   1.3502   1.5879   1.5879   1.6934   1.6934   1.8383   1.8383
     1.9433   1.9433   2.0215   2.0215   2.1734   2.1734   2.1748   2.1748
     2.2439   2.2439   2.2478   2.2478   2.4673   2.4673   2.6761   2.6761

          k = 0.0000 0.3874 0.0000 ( 38158 PWs)   bands (ev):

   -17.5554 -17.5550 -17.5548 -17.5544 -13.2602 -13.2582 -13.2459 -13.2457
   -13.2457 -13.2433 -13.2395 -13.2394 -13.2032 -13.2032 -13.2027 -13.2027
   -13.1975 -13.1974 -13.1973 -13.1972 -13.1930 -13.1928 -13.1927 -13.1926
    -8.8454  -8.7364  -8.6213  -8.5194  -8.4746  -8.4708  -8.3290  -8.3171
    -8.2848  -8.2592  -8.2556  -8.2419  -4.8460  -4.5735  -4.4381  -4.4036
    -4.3855  -4.3831  -4.3762  -4.3694  -4.3678  -4.3660  -4.3631  -4.3543
    -4.3511  -4.3166  -4.2328  -3.9930  -0.1360  -0.0685   0.2893   0.4427
     0.4643   0.5844   0.7961   0.9161   0.9932   1.1338   1.1675   1.1825
     1.3649   1.4779   1.5110   1.5818   1.7327   1.8189   1.8875   1.9017
     1.9070   1.9187   1.9893   2.0196   2.0360   2.0747   2.1043   2.1670
     2.1970   2.2041   2.3035   2.3171   2.4277   2.4641   2.6242   2.7577

          k = 0.0000 0.3874 0.1719 ( 38166 PWs)   bands (ev):

   -17.5553 -17.5549 -17.5548 -17.5545 -13.2581 -13.2561 -13.2478 -13.2464
   -13.2457 -13.2451 -13.2395 -13.2395 -13.2031 -13.2031 -13.2028 -13.2027
   -13.1975 -13.1974 -13.1973 -13.1972 -13.1930 -13.1928 -13.1928 -13.1926
    -8.8250  -8.7181  -8.6825  -8.5891  -8.4121  -8.4051  -8.3272  -8.3189
    -8.2970  -8.2633  -8.2603  -8.2567  -4.7811  -4.5177  -4.4714  -4.4017
    -4.3859  -4.3840  -4.3773  -4.3718  -4.3688  -4.3624  -4.3613  -4.3588
    -4.3496  -4.3122  -4.2875  -4.0819   0.0757   0.1496   0.3088   0.4179
     0.4948   0.5464   0.8268   0.9444   0.9540   1.0475   1.1228   1.1558
     1.4188   1.4661   1.5309   1.5582   1.6767   1.7802   1.8090   1.8331
     1.8375   1.8395   1.8697   1.8875   2.1264   2.1272   2.1907   2.1944
     2.2111   2.2229   2.3002   2.3019   2.4335   2.4563   2.5051   2.5789

          k = 0.0000 0.3874-0.3438 ( 38192 PWs)   bands (ev):

   -17.5551 -17.5551 -17.5547 -17.5547 -13.2530 -13.2530 -13.2509 -13.2509
   -13.2457 -13.2457 -13.2395 -13.2395 -13.2030 -13.2030 -13.2029 -13.2029
   -13.1974 -13.1974 -13.1973 -13.1973 -13.1929 -13.1929 -13.1927 -13.1927
    -8.7669  -8.7669  -8.6660  -8.6660  -8.3380  -8.3380  -8.3270  -8.3270
    -8.3205  -8.3205  -8.2591  -8.2591  -4.6180  -4.6180  -4.4184  -4.4184
    -4.3836  -4.3836  -4.3802  -4.3802  -4.3651  -4.3651  -4.3600  -4.3600
    -4.3388  -4.3388  -4.2483  -4.2483   0.3564   0.3564   0.4369   0.4369
     0.6795   0.6795   0.7145   0.7145   0.9030   0.9030   1.0176   1.0176
     1.5014   1.5014   1.5598   1.5598   1.6240   1.6240   1.6837   1.6837
     1.8158   1.8158   1.8377   1.8377   2.2095   2.2095   2.2179   2.2179
     2.2480   2.2480   2.2541   2.2541   2.4480   2.4480   2.4560   2.4560

          k = 0.2000 0.0000 0.0000 ( 38165 PWs)   bands (ev):

   -17.5557 -17.5551 -17.5547 -17.5541 -13.2619 -13.2566 -13.2508 -13.2507
   -13.2474 -13.2418 -13.2345 -13.2344 -13.2032 -13.2032 -13.2027 -13.2026
   -13.1977 -13.1975 -13.1972 -13.1970 -13.1931 -13.1928 -13.1927 -13.1925
    -8.9188  -8.6960  -8.6130  -8.4772  -8.4688  -8.4228  -8.3868  -8.3709
    -8.3427  -8.2204  -8.2068  -8.2050  -5.0712  -4.5683  -4.4096  -4.3965
    -4.3954  -4.3880  -4.3835  -4.3802  -4.3721  -4.3704  -4.3616  -4.3564
    -4.3550  -4.3070  -4.2003  -3.7348  -0.1922  -0.0075  -0.0020   0.0513
     0.1299   0.1712   1.0448   1.0989   1.1899   1.2428   1.2869   1.2934
     1.4714   1.4850   1.6719   1.7543   1.8257   1.8354   1.8837   1.8858
     1.9343   2.0230   2.0348   2.0414   2.0635   2.0869   2.1111   2.2085
     2.2398   2.2524   2.3669   2.3811   2.4559   2.5616   2.6031   3.0003

          k = 0.2000 0.0000 0.1719 ( 38162 PWs)   bands (ev):

   -17.5556 -17.5551 -17.5546 -17.5542 -13.2597 -13.2545 -13.2508 -13.2507
   -13.2495 -13.2439 -13.2345 -13.2344 -13.2032 -13.2031 -13.2028 -13.2027
   -13.1977 -13.1975 -13.1972 -13.1970 -13.1931 -13.1929 -13.1927 -13.1925
    -8.8977  -8.7522  -8.5988  -8.5074  -8.4173  -8.3960  -8.3830  -8.3729
    -8.3469  -8.2459  -8.2062  -8.2050  -5.0023  -4.6424  -4.4032  -4.3954
    -4.3903  -4.3830  -4.3760  -4.3742  -4.3694  -4.3692  -4.3630  -4.3586
    -4.3557  -4.3275  -4.1645  -3.8307  -0.0140   0.0135   0.0798   0.1381
     0.1510   0.2268   1.0613   1.0917   1.1057   1.2299   1.2666   1.2920
     1.4669   1.4675   1.4802   1.6281   1.8000   1.8060   1.9070   1.9154
     1.9532   1.9891   2.0275   2.0779   2.0803   2.0997   2.1154   2.1624
     2.2272   2.2445   2.3424   2.3505   2.4423   2.4757   2.6063   2.7790

          k = 0.2000 0.0000-0.3438 ( 38138 PWs)   bands (ev):

   -17.5554 -17.5554 -17.5544 -17.5544 -13.2546 -13.2546 -13.2509 -13.2509
   -13.2490 -13.2490 -13.2345 -13.2345 -13.2030 -13.2030 -13.2029 -13.2029
   -13.1976 -13.1976 -13.1971 -13.1971 -13.1930 -13.1930 -13.1926 -13.1926
    -8.8376  -8.8376  -8.5601  -8.5601  -8.3815  -8.3815  -8.3644  -8.3644
    -8.3160  -8.3160  -8.2054  -8.2054  -4.8271  -4.8271  -4.3955  -4.3955
    -4.3894  -4.3894  -4.3680  -4.3680  -4.3638  -4.3638  -4.3573  -4.3573
    -4.3532  -4.3532  -4.0248  -4.0248   0.0508   0.0508   0.0924   0.0924
     0.6154   0.6154   0.7824   0.7824   1.1170   1.1170   1.2417   1.2417
     1.4049   1.4049   1.5270   1.5270   1.7971   1.7971   1.8463   1.8463
     1.9726   1.9726   2.0822   2.0822   2.0858   2.0858   2.2192   2.2192
     2.2336   2.2336   2.2568   2.2568   2.4351   2.4351   2.6322   2.6322

          k = 0.2000 0.1937 0.0000 ( 38180 PWs)   bands (ev):

   -17.5556 -17.5550 -17.5548 -17.5542 -13.2617 -13.2573 -13.2504 -13.2489
   -13.2458 -13.2428 -13.2359 -13.2354 -13.2032 -13.2032 -13.2027 -13.2027
   -13.1976 -13.1974 -13.1973 -13.1971 -13.1931 -13.1928 -13.1927 -13.1925
    -8.8949  -8.6692  -8.6465  -8.4778  -8.4703  -8.4113  -8.4060  -8.3988
    -8.2950  -8.2522  -8.2277  -8.1968  -4.9969  -4.5202  -4.4464  -4.3957
    -4.3920  -4.3846  -4.3808  -4.3749  -4.3694  -4.3683  -4.3602  -4.3590
    -4.3527  -4.2858  -4.2498  -3.8113  -0.1786  -0.0835  -0.0400   0.0701
     0.3540   0.4742   0.8808   1.1007   1.1320   1.1408   1.1808   1.3331
     1.3485   1.5346   1.6523   1.7768   1.7848   1.8653   1.8853   1.8988
     1.9214   1.9584   2.0029   2.0346   2.0653   2.1187   2.1214   2.1594
     2.2030   2.2114   2.3160   2.3578   2.4628   2.5770   2.5787   2.9687

          k = 0.2000 0.1937 0.1719 ( 38170 PWs)   bands (ev):

   -17.5555 -17.5550 -17.5547 -17.5543 -13.2596 -13.2552 -13.2511 -13.2488
   -13.2472 -13.2448 -13.2358 -13.2356 -13.2032 -13.2031 -13.2028 -13.2027
   -13.1976 -13.1975 -13.1972 -13.1971 -13.1930 -13.1928 -13.1927 -13.1925
    -8.8739  -8.7278  -8.6301  -8.5200  -8.4200  -8.4050  -8.3985  -8.3681
    -8.3023  -8.2656  -8.2266  -8.2085  -4.9299  -4.5853  -4.4202  -4.3945
    -4.3868  -4.3837  -4.3799  -4.3716  -4.3686  -4.3652  -4.3612  -4.3577
    -4.3544  -4.3153  -4.2232  -3.9051  -0.0667  -0.0083   0.0732   0.2046
     0.3826   0.4457   0.9145   1.0611   1.0872   1.1262   1.1578   1.2976
     1.3505   1.4821   1.5887   1.6452   1.7548   1.7951   1.8247   1.8620
     1.9046   1.9764   2.0440   2.0614   2.0885   2.1206   2.1360   2.1680
     2.1877   2.2175   2.3048   2.3418   2.4443   2.4730   2.5773   2.7592

          k = 0.2000 0.1937-0.3438 ( 38156 PWs)   bands (ev):

   -17.5553 -17.5553 -17.5545 -17.5545 -13.2548 -13.2548 -13.2502 -13.2502
   -13.2483 -13.2483 -13.2357 -13.2357 -13.2030 -13.2030 -13.2029 -13.2029
   -13.1975 -13.1975 -13.1972 -13.1972 -13.1929 -13.1929 -13.1926 -13.1926
    -8.8138  -8.8138  -8.5844  -8.5844  -8.4047  -8.4047  -8.3311  -8.3311
    -8.3173  -8.3173  -8.2220  -8.2220  -4.7601  -4.7601  -4.3970  -4.3970
    -4.3873  -4.3873  -4.3666  -4.3666  -4.3645  -4.3645  -4.3583  -4.3583
    -4.3489  -4.3489  -4.0949  -4.0949  -0.0248  -0.0248   0.3668   0.3668
     0.6521   0.6521   0.7409   0.7409   1.0110   1.0110   1.1651   1.1651
     1.4011   1.4011   1.5748   1.5748   1.6907   1.6907   1.8210   1.8210
     1.9460   1.9460   2.0273   2.0273   2.1398   2.1398   2.2140   2.2140
     2.2325   2.2325   2.2570   2.2570   2.4263   2.4263   2.6033   2.6033

          k = 0.2000 0.3874 0.0000 ( 38143 PWs)   bands (ev):

   -17.5553 -17.5550 -17.5547 -17.5544 -13.2607 -13.2589 -13.2486 -13.2457
   -13.2445 -13.2419 -13.2396 -13.2381 -13.2032 -13.2032 -13.2027 -13.2027
   -13.1975 -13.1974 -13.1973 -13.1972 -13.1930 -13.1929 -13.1927 -13.1926
    -8.8281  -8.7340  -8.5956  -8.4966  -8.4765  -8.4732  -8.3788  -8.3492
    -8.3189  -8.2826  -8.2356  -8.2055  -4.8063  -4.5850  -4.4313  -4.3978
    -4.3847  -4.3801  -4.3766  -4.3687  -4.3679  -4.3635  -4.3629  -4.3580
    -4.3512  -4.3223  -4.1899  -3.9982  -0.1378  -0.0859   0.0730   0.2340
     0.4304   0.6189   0.7934   0.9538   1.0555   1.0978   1.1436   1.3483
     1.4147   1.5192   1.5981   1.6872   1.7564   1.8745   1.8773   1.8903
     1.9029   1.9730   1.9817   1.9957   2.0478   2.0568   2.1293   2.1464
     2.1548   2.1736   2.2365   2.2918   2.4303   2.4920   2.6304   2.7823

          k = 0.2000 0.3874 0.1719 ( 38174 PWs)   bands (ev):

   -17.5552 -17.5549 -17.5548 -17.5545 -13.2586 -13.2569 -13.2499 -13.2474
   -13.2444 -13.2428 -13.2395 -13.2386 -13.2031 -13.2031 -13.2028 -13.2027
   -13.1975 -13.1974 -13.1974 -13.1972 -13.1929 -13.1928 -13.1927 -13.1926
    -8.8074  -8.7147  -8.6617  -8.5781  -8.4150  -8.4094  -8.3787  -8.3367
    -8.3222  -8.2784  -8.2498  -8.2219  -4.7438  -4.5316  -4.4610  -4.3988
    -4.3822  -4.3808  -4.3785  -4.3698  -4.3664  -4.3640  -4.3599  -4.3574
    -4.3493  -4.3165  -4.2526  -4.0856   0.0555   0.1072   0.1201   0.2308
     0.4585   0.5830   0.8205   0.9055   1.0743   1.0933   1.1338   1.2368
     1.4264   1.4497   1.5582   1.6614   1.6966   1.7741   1.8074   1.8282
     1.8709   1.9261   1.9567   1.9933   2.0939   2.1245   2.1481   2.1553
     2.2011   2.2270   2.2386   2.2855   2.4164   2.4698   2.4887   2.5927

          k = 0.2000 0.3874-0.3438 ( 38170 PWs)   bands (ev):

   -17.5550 -17.5550 -17.5547 -17.5547 -13.2539 -13.2539 -13.2520 -13.2520
   -13.2439 -13.2439 -13.2392 -13.2392 -13.2030 -13.2030 -13.2029 -13.2029
   -13.1974 -13.1974 -13.1973 -13.1973 -13.1928 -13.1928 -13.1927 -13.1927
    -8.7483  -8.7483  -8.6597  -8.6597  -8.3848  -8.3848  -8.3463  -8.3463
    -8.2898  -8.2898  -8.2577  -8.2577  -4.5900  -4.5900  -4.4328  -4.4328
    -4.3824  -4.3824  -4.3740  -4.3740  -4.3603  -4.3603  -4.3570  -4.3570
    -4.3296  -4.3296  -4.2490  -4.2490   0.1342   0.1342   0.4672   0.4672
     0.6297   0.6297   0.7353   0.7353   0.9008   0.9008   1.1223   1.1223
     1.4629   1.4629   1.5242   1.5242   1.6681   1.6681   1.7822   1.7822
     1.8563   1.8563   1.9920   1.9920   2.1357   2.1357   2.1964   2.1964
     2.2337   2.2337   2.2634   2.2634   2.3965   2.3965   2.4662   2.4662

          k = 0.4000 0.0000 0.0000 ( 38174 PWs)   bands (ev):

   -17.5554 -17.5550 -17.5547 -17.5544 -13.2602 -13.2582 -13.2459 -13.2457
   -13.2457 -13.2433 -13.2395 -13.2395 -13.2032 -13.2032 -13.2027 -13.2027
   -13.1975 -13.1974 -13.1973 -13.1972 -13.1930 -13.1928 -13.1927 -13.1926
    -8.8471  -8.7384  -8.6191  -8.5154  -8.4761  -8.4726  -8.3364  -8.3211
    -8.2903  -8.2584  -8.2495  -8.2346  -4.8476  -4.5734  -4.4477  -4.3999
    -4.3847  -4.3833  -4.3796  -4.3772  -4.3758  -4.3646  -4.3569  -4.3547
    -4.3431  -4.3074  -4.2152  -3.9883  -0.1404  -0.0723   0.2860   0.4447
     0.4865   0.6292   0.6959   0.9291   0.9364   1.1196   1.1320   1.1614
     1.3300   1.4775   1.5307   1.6630   1.7774   1.8701   1.8749   1.9153
     1.9183   1.9297   2.0244   2.0246   2.0727   2.0939   2.1703   2.1821
     2.2083   2.2590   2.2958   2.3379   2.3486   2.3630   2.5737   2.6840

          k = 0.4000 0.0000 0.1719 ( 38170 PWs)   bands (ev):

   -17.5553 -17.5550 -17.5548 -17.5545 -13.2581 -13.2561 -13.2478 -13.2463
   -13.2457 -13.2451 -13.2395 -13.2395 -13.2031 -13.2031 -13.2028 -13.2027
   -13.1975 -13.1974 -13.1973 -13.1972 -13.1930 -13.1928 -13.1928 -13.1926
    -8.8265  -8.7205  -8.6810  -8.5880  -8.4135  -8.4049  -8.3358  -8.3222
    -8.2999  -8.2602  -8.2531  -8.2529  -4.7843  -4.5227  -4.4822  -4.4019
    -4.3838  -4.3836  -4.3777  -4.3776  -4.3734  -4.3641  -4.3563  -4.3557
    -4.3412  -4.3024  -4.2693  -4.0762   0.0695   0.1442   0.3060   0.4169
     0.5186   0.5854   0.7242   0.8846   0.9637   1.0619   1.0739   1.1161
     1.3754   1.4975   1.5564   1.5762   1.7216   1.7380   1.8402   1.8525
     1.8970   1.9204   1.9804   2.0019   2.1125   2.1371   2.1831   2.1877
     2.2114   2.2744   2.2829   2.3385   2.3523   2.3576   2.4407   2.4717

          k = 0.4000 0.0000-0.3438 ( 38144 PWs)   bands (ev):

   -17.5551 -17.5551 -17.5547 -17.5547 -13.2529 -13.2529 -13.2509 -13.2509
   -13.2457 -13.2457 -13.2395 -13.2395 -13.2030 -13.2030 -13.2029 -13.2029
   -13.1974 -13.1974 -13.1973 -13.1973 -13.1929 -13.1929 -13.1927 -13.1927
    -8.7679  -8.7679  -8.6661  -8.6661  -8.3452  -8.3452  -8.3367  -8.3367
    -8.3069  -8.3069  -8.2563  -8.2563  -4.6269  -4.6269  -4.4285  -4.4285
    -4.3850  -4.3850  -4.3744  -4.3744  -4.3666  -4.3666  -4.3498  -4.3498
    -4.3302  -4.3302  -4.2405  -4.2405   0.3563   0.3563   0.4542   0.4542
     0.6391   0.6391   0.7405   0.7405   0.8069   0.8069   1.0186   1.0186
     1.5016   1.5016   1.5606   1.5606   1.6614   1.6614   1.7167   1.7167
     1.8982   1.8982   1.9291   1.9291   2.1807   2.1807   2.2168   2.2168
     2.2402   2.2402   2.2976   2.2976   2.3566   2.3566   2.3727   2.3727

          k = 0.4000 0.1937 0.0000 ( 38175 PWs)   bands (ev):

   -17.5553 -17.5550 -17.5547 -17.5544 -13.2607 -13.2589 -13.2486 -13.2457
   -13.2445 -13.2419 -13.2396 -13.2381 -13.2032 -13.2032 -13.2027 -13.2027
   -13.1975 -13.1974 -13.1973 -13.1972 -13.1930 -13.1929 -13.1927 -13.1926
    -8.8292  -8.7353  -8.5939  -8.4931  -8.4777  -8.4744  -8.3798  -8.3527
    -8.3207  -8.2845  -8.2318  -8.2035  -4.8073  -4.5851  -4.4371  -4.3969
    -4.3836  -4.3824  -4.3750  -4.3747  -4.3714  -4.3643  -4.3595  -4.3575
    -4.3447  -4.3158  -4.1813  -3.9951  -0.1407  -0.0886   0.0718   0.2400
     0.4303   0.6314   0.7672   0.9451   1.0260   1.0775   1.1257   1.3547
     1.4000   1.5031   1.6125   1.7486   1.7588   1.8523   1.9091   1.9160
     1.9460   1.9579   2.0156   2.0234   2.0350   2.0594   2.1263   2.1587
     2.1813   2.2064   2.2333   2.2772   2.3995   2.4514   2.6002   2.7444

          k = 0.4000 0.1937 0.1719 ( 38154 PWs)   bands (ev):

   -17.5552 -17.5550 -17.5548 -17.5545 -13.2586 -13.2569 -13.2499 -13.2474
   -13.2444 -13.2428 -13.2395 -13.2386 -13.2031 -13.2031 -13.2028 -13.2027
   -13.1975 -13.1974 -13.1974 -13.1972 -13.1929 -13.1928 -13.1927 -13.1926
    -8.8084  -8.7162  -8.6607  -8.5774  -8.4175  -8.4082  -8.3795  -8.3378
    -8.3245  -8.2797  -8.2460  -8.2200  -4.7459  -4.5341  -4.4674  -4.4015
    -4.3825  -4.3816  -4.3758  -4.3721  -4.3680  -4.3641  -4.3581  -4.3566
    -4.3427  -4.3099  -4.2432  -4.0818   0.0537   0.1007   0.1204   0.2344
     0.4589   0.5931   0.7932   0.8926   1.0400   1.0582   1.1272   1.2509
     1.3996   1.4531   1.6038   1.6458   1.7013   1.7484   1.8549   1.8835
     1.9384   1.9498   1.9997   2.0673   2.0854   2.1072   2.1452   2.1530
     2.1880   2.2239   2.2391   2.2811   2.3840   2.4247   2.4550   2.5398

          k = 0.4000 0.1937-0.3438 ( 38158 PWs)   bands (ev):

   -17.5550 -17.5550 -17.5547 -17.5547 -13.2539 -13.2539 -13.2520 -13.2520
   -13.2439 -13.2439 -13.2392 -13.2392 -13.2030 -13.2030 -13.2029 -13.2029
   -13.1974 -13.1974 -13.1973 -13.1973 -13.1928 -13.1928 -13.1927 -13.1927
    -8.7490  -8.7490  -8.6596  -8.6596  -8.3878  -8.3878  -8.3463  -8.3463
    -8.2888  -8.2888  -8.2562  -8.2562  -4.5957  -4.5957  -4.4379  -4.4379
    -4.3828  -4.3828  -4.3716  -4.3716  -4.3644  -4.3644  -4.3487  -4.3487
    -4.3234  -4.3234  -4.2440  -4.2440   0.1357   0.1357   0.4742   0.4742
     0.6013   0.6013   0.7418   0.7418   0.8708   0.8708   1.1152   1.1152
     1.4537   1.4537   1.5275   1.5275   1.7028   1.7028   1.8238   1.8238
     1.8936   1.8936   2.0393   2.0393   2.1320   2.1320   2.1858   2.1858
     2.2246   2.2246   2.2601   2.2601   2.3535   2.3535   2.4230   2.4230

          k = 0.4000 0.3874 0.0000 ( 38181 PWs)   bands (ev):

   -17.5552 -17.5551 -17.5546 -17.5545 -13.2610 -13.2603 -13.2496 -13.2484
   -13.2421 -13.2403 -13.2389 -13.2375 -13.2032 -13.2032 -13.2027 -13.2027
   -13.1975 -13.1974 -13.1973 -13.1972 -13.1929 -13.1929 -13.1927 -13.1926
    -8.7850  -8.7445  -8.5258  -8.4809  -8.4783  -8.4467  -8.4177  -8.4087
    -8.3813  -8.3507  -8.1977  -8.1876  -4.7150  -4.6299  -4.4144  -4.3974
    -4.3821  -4.3806  -4.3699  -4.3652  -4.3635  -4.3632  -4.3617  -4.3603
    -4.3486  -4.3364  -4.1033  -4.0303  -0.1378  -0.1208  -0.0264   0.1122
     0.1658   0.3074   0.9974   1.0034   1.0624   1.1770   1.3094   1.4826
     1.5033   1.5352   1.7266   1.7529   1.7676   1.8557   1.8559   1.9118
     1.9139   1.9569   1.9945   2.0291   2.0443   2.0590   2.0632   2.0709
     2.0811   2.1167   2.2257   2.3041   2.4886   2.5257   2.7032   2.8070

          k = 0.4000 0.3874 0.1719 ( 38193 PWs)   bands (ev):

   -17.5551 -17.5550 -17.5547 -17.5546 -13.2591 -13.2583 -13.2509 -13.2498
   -13.2419 -13.2401 -13.2398 -13.2383 -13.2031 -13.2031 -13.2028 -13.2028
   -13.1974 -13.1974 -13.1973 -13.1972 -13.1929 -13.1929 -13.1927 -13.1927
    -8.7636  -8.7233  -8.6109  -8.5712  -8.4249  -8.4173  -8.4070  -8.3863
    -8.3514  -8.3257  -8.2156  -8.2064  -4.6582  -4.5773  -4.4358  -4.4105
    -4.3783  -4.3779  -4.3714  -4.3690  -4.3612  -4.3604  -4.3562  -4.3513
    -4.3475  -4.3301  -4.1780  -4.1133  -0.0058   0.0361   0.0733   0.1314
     0.2049   0.2946   1.0287   1.0389   1.0725   1.1528   1.2113   1.2842
     1.4160   1.4971   1.6377   1.6731   1.7402   1.7989   1.8915   1.9410
     1.9509   1.9615   1.9999   2.0261   2.0377   2.0627   2.0712   2.0922
     2.1103   2.1581   2.2427   2.3036   2.4637   2.5069   2.5250   2.6309

          k = 0.4000 0.3874-0.3438 ( 38170 PWs)   bands (ev):

   -17.5549 -17.5549 -17.5548 -17.5548 -13.2547 -13.2547 -13.2538 -13.2538
   -13.2412 -13.2412 -13.2395 -13.2395 -13.2030 -13.2030 -13.2029 -13.2029
   -13.1974 -13.1974 -13.1973 -13.1973 -13.1928 -13.1928 -13.1928 -13.1928
    -8.7026  -8.7026  -8.6623  -8.6623  -8.4168  -8.4168  -8.3914  -8.3914
    -8.2690  -8.2690  -8.2594  -8.2594  -4.5276  -4.5276  -4.4693  -4.4693
    -4.3772  -4.3772  -4.3714  -4.3714  -4.3569  -4.3569  -4.3502  -4.3502
    -4.2983  -4.2983  -4.2637  -4.2637   0.0446   0.0446   0.1807   0.1807
     0.6513   0.6513   0.7072   0.7072   1.0885   1.0885   1.1365   1.1365
     1.4380   1.4380   1.5257   1.5257   1.8189   1.8189   1.9117   1.9117
     1.9364   1.9364   2.0036   2.0036   2.0504   2.0504   2.1005   2.1005
     2.2008   2.2008   2.2723   2.2723   2.4177   2.4177   2.5060   2.5060

     highest occupied level (ev):     3.2825

!    total energy              =   -8165.84417501 Ry
     estimated scf accuracy    <       0.00000006 Ry

     The total energy is the sum of the following terms:
     one-electron contribution =    -334.82297619 Ry
     hartree contribution      =     254.94921261 Ry
     xc contribution           =    -792.71154896 Ry
     ewald contribution        =    -643.62751295 Ry
     one-center paw contrib.   =   -6649.63134952 Ry

     convergence has been achieved in  14 iterations

     Forces acting on atoms (cartesian axes, Ry/au):

     atom    1 type  1   force =    -0.00327575   -0.00498419   -0.00000000
     atom    2 type  1   force =     0.00327575    0.00498419    0.00000000
     atom    3 type  1   force =    -0.00327575    0.00498419   -0.00000000
     atom    4 type  1   force =     0.00327575   -0.00498419   -0.00000000
     atom    5 type  2   force =     0.00000000    0.00000000    0.00000000
     atom    6 type  2   force =     0.00000000    0.00000000    0.00000000
     atom    7 type  2   force =    -0.00000000   -0.00000000    0.00000000
     atom    8 type  2   force =     0.00000000   -0.00000000    0.00000000
     atom    9 type  3   force =    -0.00117594    0.00224791    0.00000000
     atom   10 type  3   force =     0.00117594   -0.00224791    0.00000000
     atom   11 type  3   force =    -0.00117594   -0.00224791    0.00000000
     atom   12 type  3   force =     0.00117594    0.00224791    0.00000000
     atom   13 type  3   force =    -0.00366280   -0.00464018    0.00152613
     atom   14 type  3   force =     0.00366280    0.00464018    0.00152613
     atom   15 type  3   force =    -0.00366280    0.00464018   -0.00152613
     atom   16 type  3   force =     0.00366280   -0.00464018   -0.00152613
     atom   17 type  3   force =     0.00366280    0.00464018   -0.00152613
     atom   18 type  3   force =    -0.00366280   -0.00464018   -0.00152613
     atom   19 type  3   force =     0.00366280   -0.00464018    0.00152613
     atom   20 type  3   force =    -0.00366280    0.00464018    0.00152613

     Total force =     0.021593     Total SCF correction =     0.000019


     Computing stress (Cartesian axis) and pressure

          total   stress  (Ry/bohr**3)                   (kbar)     P=       -1.63
   0.00001015   0.00000000   0.00000000            1.49        0.00        0.00
   0.00000000  -0.00003441   0.00000000            0.00       -5.06        0.00
   0.00000000   0.00000000  -0.00000889            0.00        0.00       -1.31


     Writing all to output data dir ./tmp/conv_k554.save/ :
     XML data file, charge density, pseudopotentials, collected wavefunctions

     init_run     :    115.48s CPU    117.32s WALL (       1 calls)
     electrons    :   4133.45s CPU   4181.23s WALL (       1 calls)
     forces       :     59.13s CPU     60.10s WALL (       1 calls)
     stress       :    193.23s CPU    195.34s WALL (       1 calls)

     Called by init_run:
     wfcinit      :    110.67s CPU    111.51s WALL (       1 calls)
     potinit      :      1.62s CPU      1.72s WALL (       1 calls)
     hinit0       :      0.61s CPU      0.65s WALL (       1 calls)

     Called by electrons:
     c_bands      :   3736.16s CPU   3757.00s WALL (      15 calls)
     sum_band     :    348.02s CPU    364.22s WALL (      15 calls)
     v_of_rho     :      4.70s CPU      4.90s WALL (      15 calls)
     newd         :     33.09s CPU     44.45s WALL (      15 calls)
     PAW_pot      :     13.25s CPU     13.25s WALL (      15 calls)
     mix_rho      :      0.96s CPU      1.01s WALL (      15 calls)

     Called by c_bands:
     init_us_2    :     17.42s CPU     17.44s WALL (     891 calls)
     cegterg      :   3700.94s CPU   3721.70s WALL (     405 calls)

     Called by *egterg:
     cdiaghg      :     43.84s CPU     43.86s WALL (    1823 calls)
     h_psi        :   1619.28s CPU   1638.38s WALL (    1877 calls)
     s_psi        :    550.36s CPU    550.45s WALL (    1877 calls)
     g_psi        :      6.09s CPU      6.10s WALL (    1445 calls)

     Called by h_psi:
     h_psi:calbec :    576.85s CPU    577.33s WALL (    1877 calls)
     vloc_psi     :    483.87s CPU    501.55s WALL (    1877 calls)
     add_vuspsi   :    554.62s CPU    554.68s WALL (    1877 calls)

     General routines
     calbec       :    997.88s CPU    998.63s WALL (    2741 calls)
     fft          :      4.44s CPU      4.72s WALL (     219 calls)
     ffts         :      0.44s CPU      0.45s WALL (      30 calls)
     fftw         :    505.44s CPU    524.08s WALL (  241318 calls)
     interpolate  :      0.72s CPU      0.76s WALL (      15 calls)

     Parallel routines

     PWSCF        :      1h15m CPU      1h15m WALL


   This run was terminated on:  19: 8: 1   4Oct2026            

=------------------------------------------------------------------------------=
   JOB DONE.
=------------------------------------------------------------------------------=
