
     Program PWSCF v.7.6 starts on  5Oct2026 at  2:57:19 

     This program is part of the open-source Quantum ESPRESSO suite
     for quantum simulation of materials; please cite
         "P. Giannozzi et al., J. Phys.:Condens. Matter 21 395502 (2009);
         "P. Giannozzi et al., J. Phys.:Condens. Matter 29 465901 (2017);
         "P. Giannozzi et al., J. Chem. Phys. 152 154105 (2020);
          URL http://www.quantum-espresso.org", 
     in publications or presentations arising from this work. More details at
     http://www.quantum-espresso.org/quote

     Parallel version (MPI), running on     6 processors

     MPI processes distributed on     1 nodes
     7089 MiB available memory on the printing compute node when the environment starts

     Reading input from vcrelax.in

     Current dimensions of program PWSCF are:
     Max number of different atomic species (ntypx) = 10
     Max number of k-points (npk) =  40000
     Max angular momentum in pseudopotentials (lmaxx) =  4
     file Pb.pbesol-dn-kjpaw_psl.0.2.2.UPF: wavefunction(s)  6S renormalized
     Message from routine setup:
     using ibrav=0 with symmetry is DISCOURAGED, use correct ibrav instead

     R & G space division:  proc/nbgrp/npool/nimage =       6
     Subspace diagonalization in iterative solution of the eigenvalue problem:
     a serial algorithm will be used


     Parallelization info
     --------------------
     sticks:   dense  smooth     PW     G-vecs:    dense   smooth      PW
     Min        1728     862    229               189236    66876    9111
     Max        1729     863    230               189241    66879    9113
     Sum       10373    5173   1375              1135441   401265   54669

     Using Slab Decomposition



     bravais-lattice index     =            0
     lattice parameter (alat)  =      16.2074  a.u.
     unit-cell volume          =    6392.8915 (a.u.)^3
     number of atoms/cell      =           20
     number of atomic types    =            3
     number of electrons       =       176.00
     number of Kohn-Sham states=           88
     kinetic-energy cutoff     =      60.0000  Ry
     charge density cutoff     =     480.0000  Ry
     scf convergence threshold =      1.0E-07
     mixing beta               =       0.5000
     number of iterations used =            8  plain     mixing
     energy convergence thresh.=      1.0E-04
     force convergence thresh. =      1.0E-03
     press convergence thresh. =      5.0E-01
     Exchange-correlation= SLA  PW   PSX  PSC
                           (   1   4  10   8   0   0   0)
     nstep                     =          150


     celldm(1)=  16.207425  celldm(2)=   0.000000  celldm(3)=   0.000000
     celldm(4)=   0.000000  celldm(5)=   0.000000  celldm(6)=   0.000000

     crystal axes: (cart. coord. in units of alat)
               a(1) = (   1.000000   0.000000   0.000000 )  
               a(2) = (   0.000000   1.032589   0.000000 )  
               a(3) = (   0.000000   0.000000   1.454213 )  

     reciprocal axes: (cart. coord. in units 2 pi/alat)
               b(1) = (  1.000000  0.000000  0.000000 )  
               b(2) = (  0.000000  0.968440  0.000000 )  
               b(3) = (  0.000000  0.000000  0.687657 )  


     PseudoPot. # 1 for Cs read from file:
     /home/duydao/pseudo_pbesol/cs_pbesol_v1.uspp.F.UPF
     MD5 check sum: ae4559e5c840913b791237f814e2d884
     Pseudo is Ultrasoft + core correction, Zval =  9.0
     Generated by new atomic code, or converted to UPF format
     Using radial grid of  905 points,  6 beta functions with: 
                l(1) =   0
                l(2) =   0
                l(3) =   1
                l(4) =   1
                l(5) =   2
                l(6) =   2
     Q(r) pseudized with  6 coefficients,  rinner =    1.500   1.500   1.500
                                                       1.500   1.500

     PseudoPot. # 2 for Pb read from file:
     /home/duydao/pseudo_pbesol/Pb.pbesol-dn-kjpaw_psl.0.2.2.UPF
     MD5 check sum: df0e0ac60519e244e20a4bf230ae894d
     Pseudo is Projector augmented-wave + core cor, Zval = 14.0
     Generated using "atomic" code by A. Dal Corso  v.6.0 svn rev. 13079
     Shape of augmentation charge: PSQ
     Using radial grid of 1281 points,  6 beta functions with: 
                l(1) =   0
                l(2) =   0
                l(3) =   1
                l(4) =   1
                l(5) =   2
                l(6) =   2
     Q(r) pseudized with 0 coefficients 


     PseudoPot. # 3 for I  read from file:
     /home/duydao/pseudo_pbesol/I.pbesol-n-kjpaw_psl.0.2.UPF
     MD5 check sum: cecf1a22a184a0b1ae701638a037a48d
     Pseudo is Projector augmented-wave + core cor, Zval =  7.0
     Generated using "atomic" code by A. Dal Corso  v.6.0 svn rev. 13079
     Shape of augmentation charge: PSQ
     Using radial grid of 1247 points,  4 beta functions with: 
                l(1) =   0
                l(2) =   0
                l(3) =   1
                l(4) =   1
     Q(r) pseudized with 0 coefficients 


     atomic species   valence    mass     pseudopotential
     Cs                9.00   132.90500     Cs( 1.00)
     Pb               14.00   207.20000     Pb( 1.00)
     I                 7.00   126.90400     I ( 1.00)

      8 Sym. Ops., with inversion, found ( 6 have fractional translation)



   Cartesian axes

     site n.     atom                  positions (alat units)
         1        Cs     tau(   1) = (   0.5050900   0.4749392   0.3635532  )
         2        Cs     tau(   2) = (   0.4949100   0.5576495   1.0906595  )
         3        Cs     tau(   3) = (   0.0050900   0.0413552   1.0906595  )
         4        Cs     tau(   4) = (   0.9949100   0.9912335   0.3635532  )
         5        Pb     tau(   5) = (   0.5000000   0.0000000   0.0000000  )
         6        Pb     tau(   6) = (   0.5000000   0.0000000   0.7271063  )
         7        Pb     tau(   7) = (   0.0000000   0.5162943   0.0000000  )
         8        Pb     tau(   8) = (   0.0000000   0.5162943   0.7271063  )
         9        I      tau(   9) = (   0.5620200   0.0011668   0.3635532  )
        10        I      tau(  10) = (   0.4379800   1.0314218   1.0906595  )
        11        I      tau(  11) = (   0.0620200   0.5151275   1.0906595  )
        12        I      tau(  12) = (   0.9379800   0.5174612   0.3635532  )
        13        I      tau(  13) = (   0.6973100   0.3153319   1.4021954  )
        14        I      tau(  14) = (   0.3026900   0.7172567   0.6750891  )
        15        I      tau(  15) = (   0.1973100   0.2009624   0.0520172  )
        16        I      tau(  16) = (   0.8026900   0.8316263   0.7791235  )
        17        I      tau(  17) = (   0.3026900   0.7172567   0.0520172  )
        18        I      tau(  18) = (   0.6973100   0.3153319   0.7791235  )
        19        I      tau(  19) = (   0.8026900   0.8316263   1.4021954  )
        20        I      tau(  20) = (   0.1973100   0.2009624   0.6750891  )

     number of k points=     8
                       cart. coord. in units 2pi/alat
        k(    1) = (   0.0000000   0.0000000   0.0000000), wk =   0.1111111
        k(    2) = (   0.0000000   0.0000000  -0.3438287), wk =   0.1111111
        k(    3) = (   0.0000000   0.3228133   0.0000000), wk =   0.2222222
        k(    4) = (   0.0000000   0.3228133  -0.3438287), wk =   0.2222222
        k(    5) = (   0.3333333   0.0000000   0.0000000), wk =   0.2222222
        k(    6) = (   0.3333333   0.0000000  -0.3438287), wk =   0.2222222
        k(    7) = (   0.3333333   0.3228133   0.0000000), wk =   0.4444444
        k(    8) = (   0.3333333   0.3228133  -0.3438287), wk =   0.4444444

     Dense  grid:  1135441 G-vectors     FFT dimensions: ( 120, 120, 180)

     Smooth grid:   401265 G-vectors     FFT dimensions: (  80,  90, 120)

     Estimated max dynamical RAM per process >     897.95 MB

     Estimated total dynamical RAM >       5.26 GB

     Initial potential from superposition of free atoms

     starting charge     175.8397, renormalised to     176.0000
     Starting wfcs are  136 randomized atomic wfcs
     Checking if some PAW data can be deallocated... 

     total cpu time spent up to now is       58.1 secs

     Self-consistent Calculation

     iteration #  1     ecut=    60.00 Ry     beta= 0.50
     Davidson diagonalization with overlap
     ethr =  1.00E-02,  avg # of iterations =  1.6

     Threshold (ethr) on eigenvalues was too large:
     Diagonalizing with lowered threshold

     Davidson diagonalization with overlap
     ethr =  2.30E-04,  avg # of iterations =  5.0

     total cpu time spent up to now is      259.1 secs

     total energy              =   -8165.73789436 Ry
     estimated scf accuracy    <       0.35253676 Ry

     iteration #  2     ecut=    60.00 Ry     beta= 0.50
     Davidson diagonalization with overlap
     ethr =  2.00E-04,  avg # of iterations =  3.1

     total cpu time spent up to now is      365.5 secs

     total energy              =   -8165.83267675 Ry
     estimated scf accuracy    <       0.01429058 Ry

     iteration #  3     ecut=    60.00 Ry     beta= 0.50
     Davidson diagonalization with overlap
     ethr =  8.12E-06,  avg # of iterations =  5.0

     total cpu time spent up to now is      504.9 secs

     total energy              =   -8165.84284542 Ry
     estimated scf accuracy    <       0.00529269 Ry

     iteration #  4     ecut=    60.00 Ry     beta= 0.50
     Davidson diagonalization with overlap
     ethr =  3.01E-06,  avg # of iterations =  2.6

     total cpu time spent up to now is      615.2 secs

     total energy              =   -8165.84393000 Ry
     estimated scf accuracy    <       0.00058997 Ry

     iteration #  5     ecut=    60.00 Ry     beta= 0.50
     Davidson diagonalization with overlap
     ethr =  3.35E-07,  avg # of iterations =  4.1

     total cpu time spent up to now is      746.7 secs

     total energy              =   -8165.84406125 Ry
     estimated scf accuracy    <       0.00031894 Ry

     iteration #  6     ecut=    60.00 Ry     beta= 0.50
     Davidson diagonalization with overlap
     ethr =  1.81E-07,  avg # of iterations =  1.6

     total cpu time spent up to now is      834.9 secs

     total energy              =   -8165.84399586 Ry
     estimated scf accuracy    <       0.00020003 Ry

     iteration #  7     ecut=    60.00 Ry     beta= 0.50
     Davidson diagonalization with overlap
     ethr =  1.14E-07,  avg # of iterations =  4.0

     total cpu time spent up to now is      968.0 secs

     total energy              =   -8165.84405211 Ry
     estimated scf accuracy    <       0.00004577 Ry

     iteration #  8     ecut=    60.00 Ry     beta= 0.50
     Davidson diagonalization with overlap
     ethr =  2.60E-08,  avg # of iterations =  2.8

     total cpu time spent up to now is     1060.8 secs

     total energy              =   -8165.84404690 Ry
     estimated scf accuracy    <       0.00001975 Ry

     iteration #  9     ecut=    60.00 Ry     beta= 0.50
     Davidson diagonalization with overlap
     ethr =  1.12E-08,  avg # of iterations =  4.0

     total cpu time spent up to now is     1184.2 secs

     total energy              =   -8165.84405251 Ry
     estimated scf accuracy    <       0.00000590 Ry

     iteration # 10     ecut=    60.00 Ry     beta= 0.50
     Davidson diagonalization with overlap
     ethr =  3.35E-09,  avg # of iterations =  2.2

     total cpu time spent up to now is     1274.2 secs

     total energy              =   -8165.84405199 Ry
     estimated scf accuracy    <       0.00000297 Ry

     iteration # 11     ecut=    60.00 Ry     beta= 0.50
     Davidson diagonalization with overlap
     ethr =  1.69E-09,  avg # of iterations =  3.2

     total cpu time spent up to now is     1375.6 secs

     total energy              =   -8165.84405221 Ry
     estimated scf accuracy    <       0.00000032 Ry

     iteration # 12     ecut=    60.00 Ry     beta= 0.50
     Davidson diagonalization with overlap
     ethr =  1.83E-10,  avg # of iterations =  6.5

     total cpu time spent up to now is     1593.1 secs

     total energy              =   -8165.84405259 Ry
     estimated scf accuracy    <       0.00000035 Ry

     iteration # 13     ecut=    60.00 Ry     beta= 0.50
     Davidson diagonalization with overlap
     ethr =  1.83E-10,  avg # of iterations =  1.2

     total cpu time spent up to now is     1679.2 secs

     total energy              =   -8165.84405258 Ry
     estimated scf accuracy    <       0.00000014 Ry

     iteration # 14     ecut=    60.00 Ry     beta= 0.50
     Davidson diagonalization with overlap
     ethr =  7.82E-11,  avg # of iterations =  2.0

     total cpu time spent up to now is     1772.8 secs

     End of self-consistent calculation

          k = 0.0000 0.0000 0.0000 ( 50101 PWs)   bands (ev):

   -17.5548 -17.5542 -17.5536 -17.5530 -13.2776 -13.2712 -13.2654 -13.2653
   -13.2633 -13.2564 -13.2453 -13.2453 -13.2181 -13.2181 -13.2176 -13.2176
   -13.2118 -13.2116 -13.2114 -13.2111 -13.2067 -13.2065 -13.2060 -13.2059
    -8.9413  -8.7264  -8.5184  -8.4649  -8.4560  -8.4062  -8.4029  -8.3917
    -8.3869  -8.2093  -8.1891  -8.1860  -5.1613  -4.6318  -4.4014  -4.3993
    -4.3916  -4.3815  -4.3784  -4.3768  -4.3706  -4.3701  -4.3698  -4.3605
    -4.3427  -4.3395  -4.1209  -3.6275  -0.2114  -0.1300  -0.1065  -0.0257
     0.0239   0.0429   0.9969   1.2359   1.2527   1.2578   1.2658   1.3865
     1.5697   1.7394   1.7619   1.7699   1.8237   1.8330   1.8763   1.9272
     1.9356   1.9370   1.9899   2.0165   2.0417   2.1563   2.2280   2.2487
     2.2514   2.2536   2.3323   2.4079   2.5026   2.5571   2.8129   3.2825

          k = 0.0000 0.0000-0.3438 ( 50118 PWs)   bands (ev):

   -17.5545 -17.5545 -17.5533 -17.5533 -13.2705 -13.2705 -13.2655 -13.2655
   -13.2636 -13.2636 -13.2453 -13.2453 -13.2179 -13.2179 -13.2178 -13.2178
   -13.2117 -13.2117 -13.2113 -13.2113 -13.2066 -13.2066 -13.2060 -13.2060
    -8.8608  -8.8608  -8.4874  -8.4874  -8.4004  -8.4004  -8.3954  -8.3954
    -8.3093  -8.3093  -8.1871  -8.1871  -4.9079  -4.9079  -4.3969  -4.3969
    -4.3851  -4.3851  -4.3707  -4.3707  -4.3629  -4.3629  -4.3599  -4.3599
    -4.3579  -4.3579  -3.9260  -3.9260  -0.0761  -0.0761  -0.0594  -0.0594
     0.6045   0.6045   0.8384   0.8384   1.1089   1.1089   1.3325   1.3325
     1.3795   1.3795   1.7320   1.7320   1.8254   1.8254   1.9389   1.9389
     1.9575   1.9575   1.9951   1.9951   2.1568   2.1568   2.1716   2.1716
     2.2465   2.2465   2.2487   2.2487   2.4507   2.4507   2.8898   2.8898

          k = 0.0000 0.3228 0.0000 ( 50121 PWs)   bands (ev):

   -17.5545 -17.5539 -17.5539 -17.5533 -13.2760 -13.2728 -13.2616 -13.2605
   -13.2604 -13.2580 -13.2503 -13.2503 -13.2181 -13.2181 -13.2176 -13.2176
   -13.2117 -13.2115 -13.2115 -13.2112 -13.2066 -13.2064 -13.2062 -13.2061
    -8.8714  -8.6904  -8.6531  -8.4877  -8.4629  -8.4567  -8.3511  -8.3381
    -8.2981  -8.2414  -8.2387  -8.2269  -4.9368  -4.5031  -4.4774  -4.4016
    -4.3881  -4.3837  -4.3756  -4.3704  -4.3659  -4.3655  -4.3629  -4.3558
    -4.3497  -4.2905  -4.2796  -3.9054  -0.1500  -0.0393   0.1666   0.3085
     0.3254   0.4327   0.9488   1.0000   1.1588   1.1682   1.1979   1.2529
     1.3347   1.4294   1.5437   1.5733   1.8087   1.8578   1.8896   1.8991
     1.9236   1.9350   1.9945   2.0222   2.0507   2.0720   2.1069   2.1582
     2.2116   2.2175   2.3224   2.3309   2.4579   2.4864   2.6067   2.8408

          k = 0.0000 0.3228-0.3438 ( 50184 PWs)   bands (ev):

   -17.5542 -17.5542 -17.5536 -17.5536 -13.2688 -13.2688 -13.2655 -13.2655
   -13.2603 -13.2603 -13.2503 -13.2503 -13.2179 -13.2179 -13.2179 -13.2179
   -13.2116 -13.2116 -13.2114 -13.2114 -13.2065 -13.2065 -13.2062 -13.2062
    -8.7924  -8.7924  -8.6249  -8.6249  -8.3454  -8.3454  -8.3408  -8.3408
    -8.3136  -8.3136  -8.2410  -8.2410  -4.7013  -4.7013  -4.4014  -4.4014
    -4.3825  -4.3825  -4.3740  -4.3740  -4.3662  -4.3662  -4.3579  -4.3579
    -4.3466  -4.3466  -4.1786  -4.1786   0.2309   0.2309   0.3239   0.3239
     0.6840   0.6840   0.7252   0.7252   1.0464   1.0464   1.0787   1.0787
     1.4343   1.4343   1.5466   1.5466   1.6471   1.6471   1.7304   1.7304
     1.8727   1.8727   1.9108   1.9108   2.2001   2.2001   2.2109   2.2109
     2.2477   2.2477   2.2555   2.2555   2.4565   2.4565   2.4965   2.4965

          k = 0.3333 0.0000 0.0000 ( 50214 PWs)   bands (ev):

   -17.5545 -17.5540 -17.5538 -17.5533 -13.2760 -13.2727 -13.2616 -13.2605
   -13.2604 -13.2580 -13.2504 -13.2503 -13.2181 -13.2181 -13.2176 -13.2176
   -13.2117 -13.2115 -13.2115 -13.2112 -13.2066 -13.2064 -13.2062 -13.2061
    -8.8727  -8.6920  -8.6515  -8.4832  -8.4641  -8.4586  -8.3577  -8.3423
    -8.2967  -8.2409  -8.2376  -8.2218  -4.9381  -4.5009  -4.4869  -4.3927
    -4.3882  -4.3850  -4.3806  -4.3797  -4.3738  -4.3648  -4.3556  -4.3529
    -4.3497  -4.2836  -4.2595  -3.9030  -0.1543  -0.0423   0.1709   0.3154
     0.3246   0.4530   0.8388   1.0218   1.1070   1.1422   1.1638   1.2688
     1.3100   1.4782   1.5435   1.6488   1.8425   1.8437   1.8947   1.9227
     1.9481   1.9668   2.0219   2.0244   2.0732   2.0944   2.1257   2.1770
     2.2237   2.2597   2.3229   2.3539   2.3866   2.4167   2.5685   2.7678

          k = 0.3333 0.0000-0.3438 ( 50200 PWs)   bands (ev):

   -17.5542 -17.5542 -17.5536 -17.5536 -13.2688 -13.2688 -13.2655 -13.2655
   -13.2603 -13.2603 -13.2503 -13.2503 -13.2179 -13.2179 -13.2179 -13.2179
   -13.2116 -13.2116 -13.2114 -13.2114 -13.2065 -13.2065 -13.2062 -13.2062
    -8.7930  -8.7930  -8.6249  -8.6249  -8.3546  -8.3546  -8.3424  -8.3424
    -8.3051  -8.3051  -8.2393  -8.2393  -4.7075  -4.7075  -4.4065  -4.4065
    -4.3865  -4.3865  -4.3712  -4.3712  -4.3632  -4.3632  -4.3511  -4.3511
    -4.3395  -4.3395  -4.1744  -4.1744   0.2339   0.2339   0.3331   0.3331
     0.6465   0.6465   0.7334   0.7334   0.9539   0.9539   1.0947   1.0947
     1.4790   1.4790   1.5132   1.5132   1.7154   1.7154   1.7373   1.7373
     1.9531   1.9531   1.9829   1.9829   2.1594   2.1594   2.2261   2.2261
     2.2364   2.2364   2.2815   2.2815   2.3879   2.3879   2.4159   2.4159

          k = 0.3333 0.3228 0.0000 ( 50152 PWs)   bands (ev):

   -17.5543 -17.5540 -17.5537 -17.5534 -13.2761 -13.2744 -13.2639 -13.2613
   -13.2569 -13.2547 -13.2521 -13.2506 -13.2181 -13.2181 -13.2176 -13.2176
   -13.2117 -13.2116 -13.2114 -13.2113 -13.2065 -13.2063 -13.2063 -13.2061
    -8.8179  -8.7160  -8.5826  -8.4683  -8.4629  -8.4394  -8.4147  -8.4090
    -8.3422  -8.3038  -8.2142  -8.1862  -4.8008  -4.5788  -4.4350  -4.3906
    -4.3834  -4.3812  -4.3734  -4.3684  -4.3646  -4.3631  -4.3612  -4.3580
    -4.3503  -4.3204  -4.1723  -3.9849  -0.1410  -0.0930  -0.0443   0.1352
     0.3186   0.5160   0.8759   1.0308   1.0539   1.0617   1.1846   1.4375
     1.4747   1.5381   1.6822   1.7698   1.7758   1.8653   1.8668   1.9161
     1.9300   1.9422   1.9932   2.0157   2.0583   2.0692   2.0935   2.1116
     2.1141   2.1754   2.2220   2.2838   2.4587   2.5279   2.6333   2.8398

          k = 0.3333 0.3228-0.3438 ( 50168 PWs)   bands (ev):

   -17.5540 -17.5540 -17.5537 -17.5537 -13.2695 -13.2695 -13.2676 -13.2676
   -13.2563 -13.2563 -13.2516 -13.2516 -13.2179 -13.2179 -13.2179 -13.2179
   -13.2115 -13.2115 -13.2114 -13.2114 -13.2064 -13.2064 -13.2062 -13.2062
    -8.7369  -8.7369  -8.6380  -8.6380  -8.4156  -8.4156  -8.3595  -8.3595
    -8.2768  -8.2768  -8.2511  -8.2511  -4.5920  -4.5920  -4.4372  -4.4372
    -4.3799  -4.3799  -4.3691  -4.3691  -4.3598  -4.3598  -4.3502  -4.3502
    -4.3215  -4.3215  -4.2366  -4.2366   0.0231   0.0231   0.3741   0.3741
     0.6290   0.6290   0.7426   0.7426   0.9592   0.9592   1.1492   1.1492
     1.4285   1.4285   1.5340   1.5340   1.7506   1.7506   1.8671   1.8671
     1.9301   1.9301   2.0458   2.0458   2.0586   2.0586   2.1607   2.1607
     2.1998   2.1998   2.2810   2.2810   2.3721   2.3721   2.5170   2.5170

     highest occupied level (ev):     3.2825

!    total energy              =   -8165.84405259 Ry
     estimated scf accuracy    <       0.00000003 Ry

     The total energy is the sum of the following terms:
     one-electron contribution =    -334.79837387 Ry
     hartree contribution      =     254.90863287 Ry
     xc contribution           =    -792.70721322 Ry
     ewald contribution        =    -643.62751295 Ry
     one-center paw contrib.   =   -6649.61958542 Ry

     convergence has been achieved in  14 iterations

     Forces acting on atoms (cartesian axes, Ry/au):

     atom    1 type  1   force =    -0.00319706   -0.00497980    0.00000000
     atom    2 type  1   force =     0.00319706    0.00497980    0.00000000
     atom    3 type  1   force =    -0.00319706    0.00497980    0.00000000
     atom    4 type  1   force =     0.00319706   -0.00497980    0.00000000
     atom    5 type  2   force =     0.00000000    0.00000000    0.00000000
     atom    6 type  2   force =     0.00000000    0.00000000   -0.00000000
     atom    7 type  2   force =     0.00000000   -0.00000000    0.00000000
     atom    8 type  2   force =     0.00000000   -0.00000000    0.00000000
     atom    9 type  3   force =    -0.00026210    0.00222706    0.00000000
     atom   10 type  3   force =     0.00026210   -0.00222706   -0.00000000
     atom   11 type  3   force =    -0.00026210   -0.00222706   -0.00000000
     atom   12 type  3   force =     0.00026210    0.00222706    0.00000000
     atom   13 type  3   force =    -0.00368649   -0.00459271    0.00159797
     atom   14 type  3   force =     0.00368649    0.00459271    0.00159797
     atom   15 type  3   force =    -0.00368649    0.00459271   -0.00159797
     atom   16 type  3   force =     0.00368649   -0.00459271   -0.00159797
     atom   17 type  3   force =     0.00368649    0.00459271   -0.00159797
     atom   18 type  3   force =    -0.00368649   -0.00459271   -0.00159797
     atom   19 type  3   force =     0.00368649   -0.00459271    0.00159797
     atom   20 type  3   force =    -0.00368649    0.00459271    0.00159797

     Total force =     0.021403     Total SCF correction =     0.000015


     Computing stress (Cartesian axis) and pressure

          total   stress  (Ry/bohr**3)                   (kbar)     P=       -1.18
   0.00001134   0.00000000   0.00000000            1.67        0.00        0.00
   0.00000000  -0.00003371   0.00000000            0.00       -4.96        0.00
   0.00000000   0.00000000  -0.00000164            0.00        0.00       -0.24


     BFGS Geometry Optimization
     Energy error            =      6.6E-04 Ry
     Gradient error          =      5.0E-03 Ry/Bohr
     Cell gradient error     =      5.0E+00 kbar

     number of scf cycles    =   1
     number of bfgs steps    =   0

     enthalpy           new  =   -8165.8440525879 Ry

     new trust radius        =       0.0134747560 bohr
     new conv_thr            =       0.0000001000 Ry

     new unit-cell volume =   6389.05416 a.u.^3 (   946.76015 Ang^3 )
     density =      5.05701 g/cm^3

CELL_PARAMETERS (angstrom)
   8.579031947   0.000000000   0.000000000
   0.000000000   8.848637493   0.000000000
   0.000000000   0.000000000  12.471689218

ATOMIC_POSITIONS (crystal)
Cs               0.5048927407        0.4596524425        0.2500000000
Cs               0.4951072593        0.5403475575        0.7500000000
Cs               0.0048927407        0.0403475575        0.7500000000
Cs               0.9951072593        0.9596524425        0.2500000000
Pb               0.5000000000        0.0000000000        0.0000000000
Pb               0.5000000000        0.0000000000        0.5000000000
Pb               0.0000000000        0.5000000000        0.0000000000
Pb               0.0000000000        0.5000000000        0.5000000000
I                0.5620038284        0.0012630734        0.2500000000
I                0.4379961716        0.9987369266        0.7500000000
I                0.0620038284        0.4987369266        0.7500000000
I                0.9379961716        0.5012630734        0.2500000000
I                0.6970825429        0.3051055724        0.9642977996
I                0.3029174571        0.6948944276        0.4642977996
I                0.1970825429        0.1948944276        0.0357022004
I                0.8029174571        0.8051055724        0.5357022004
I                0.3029174571        0.6948944276        0.0357022004
I                0.6970825429        0.3051055724        0.5357022004
I                0.8029174571        0.8051055724        0.9642977996
I                0.1970825429        0.1948944276        0.4642977996



     Writing config-only to output data dir ./tmp/cspbi3_gamma_s1.save/ :
     XML data file
     NEW-OLD atomic charge density approx. for the potential
     New effective cutoffs (rho, wfc):  480.73   60.09

     total cpu time spent up to now is     1904.5 secs

     Self-consistent Calculation

     iteration #  1     ecut=    60.00 Ry     beta= 0.50
     Davidson diagonalization with overlap
     ethr =  1.00E-06,  avg # of iterations =  3.0

     Threshold (ethr) on eigenvalues was too large:
     Diagonalizing with lowered threshold

     Davidson diagonalization with overlap
     ethr =  4.06E-09,  avg # of iterations =  7.0

     total cpu time spent up to now is     2258.9 secs

     total energy              =   -8165.84468498 Ry
     estimated scf accuracy    <       0.00001262 Ry

     iteration #  2     ecut=    60.00 Ry     beta= 0.50
     Davidson diagonalization with overlap
     ethr =  7.17E-09,  avg # of iterations =  4.0

     total cpu time spent up to now is     2399.5 secs

     total energy              =   -8165.84469043 Ry
     estimated scf accuracy    <       0.00000171 Ry

     iteration #  3     ecut=    60.00 Ry     beta= 0.50
     Davidson diagonalization with overlap
     ethr =  9.70E-10,  avg # of iterations =  1.8

     total cpu time spent up to now is     2492.2 secs

     total energy              =   -8165.84469115 Ry
     estimated scf accuracy    <       0.00000057 Ry

     iteration #  4     ecut=    60.00 Ry     beta= 0.50
     Davidson diagonalization with overlap
     ethr =  3.26E-10,  avg # of iterations =  5.0

     total cpu time spent up to now is     2612.4 secs

     total energy              =   -8165.84469137 Ry
     estimated scf accuracy    <       0.00000031 Ry

     iteration #  5     ecut=    60.00 Ry     beta= 0.50
     Davidson diagonalization with overlap
     ethr =  1.78E-10,  avg # of iterations =  1.0

     total cpu time spent up to now is     2693.2 secs

     total energy              =   -8165.84469141 Ry
     estimated scf accuracy    <       0.00000033 Ry

     iteration #  6     ecut=    60.00 Ry     beta= 0.50
     Davidson diagonalization with overlap
     ethr =  1.78E-10,  avg # of iterations =  1.0

     total cpu time spent up to now is     2773.1 secs

     total energy              =   -8165.84469140 Ry
     estimated scf accuracy    <       0.00000018 Ry

     iteration #  7     ecut=    60.00 Ry     beta= 0.50
     Davidson diagonalization with overlap
     ethr =  1.04E-10,  avg # of iterations =  3.1

     total cpu time spent up to now is     2864.9 secs

     End of self-consistent calculation

          k = 0.0000 0.0000 0.0000 ( 50101 PWs)   bands (ev):

   -17.5495 -17.5489 -17.5483 -17.5477 -13.2716 -13.2651 -13.2594 -13.2593
   -13.2573 -13.2504 -13.2392 -13.2392 -13.2116 -13.2116 -13.2111 -13.2110
   -13.2060 -13.2057 -13.2056 -13.2053 -13.2007 -13.2005 -13.2000 -13.1999
    -8.9379  -8.7234  -8.5129  -8.4597  -8.4508  -8.4019  -8.3991  -8.3875
    -8.3832  -8.2043  -8.1841  -8.1814  -5.1582  -4.6279  -4.3961  -4.3942
    -4.3864  -4.3759  -4.3729  -4.3716  -4.3653  -4.3650  -4.3645  -4.3552
    -4.3373  -4.3344  -4.1144  -3.6207  -0.2073  -0.1284  -0.1036  -0.0232
     0.0266   0.0469   0.9999   1.2389   1.2571   1.2615   1.2693   1.3923
     1.5734   1.7444   1.7666   1.7741   1.8295   1.8381   1.8836   1.9317
     1.9402   1.9418   1.9947   2.0190   2.0459   2.1603   2.2331   2.2540
     2.2570   2.2588   2.3374   2.4129   2.5085   2.5622   2.8202   3.2901

          k = 0.0000 0.0000-0.3438 ( 50118 PWs)   bands (ev):

   -17.5492 -17.5492 -17.5480 -17.5480 -13.2645 -13.2645 -13.2595 -13.2595
   -13.2576 -13.2576 -13.2392 -13.2392 -13.2114 -13.2114 -13.2113 -13.2113
   -13.2058 -13.2058 -13.2054 -13.2054 -13.2006 -13.2006 -13.1999 -13.1999
    -8.8575  -8.8575  -8.4820  -8.4820  -8.3961  -8.3961  -8.3917  -8.3917
    -8.3044  -8.3044  -8.1824  -8.1824  -4.9045  -4.9045  -4.3916  -4.3916
    -4.3800  -4.3800  -4.3654  -4.3654  -4.3575  -4.3575  -4.3545  -4.3545
    -4.3527  -4.3527  -3.9193  -3.9193  -0.0745  -0.0745  -0.0567  -0.0567
     0.6085   0.6085   0.8434   0.8434   1.1120   1.1120   1.3374   1.3374
     1.3829   1.3829   1.7376   1.7376   1.8304   1.8304   1.9431   1.9431
     1.9623   1.9623   1.9996   1.9996   2.1624   2.1624   2.1753   2.1753
     2.2510   2.2510   2.2544   2.2544   2.4561   2.4561   2.8972   2.8972

          k = 0.0000 0.3231 0.0000 ( 50121 PWs)   bands (ev):

   -17.5492 -17.5486 -17.5486 -17.5480 -13.2700 -13.2667 -13.2556 -13.2545
   -13.2544 -13.2520 -13.2443 -13.2442 -13.2116 -13.2116 -13.2111 -13.2110
   -13.2059 -13.2057 -13.2056 -13.2054 -13.2005 -13.2004 -13.2002 -13.2000
    -8.8678  -8.6861  -8.6499  -8.4838  -8.4578  -8.4515  -8.3471  -8.3341
    -8.2928  -8.2374  -8.2341  -8.2219  -4.9329  -4.4978  -4.4728  -4.3963
    -4.3829  -4.3784  -4.3702  -4.3652  -4.3604  -4.3601  -4.3577  -4.3505
    -4.3444  -4.2850  -4.2745  -3.8997  -0.1457  -0.0346   0.1689   0.3107
     0.3306   0.4373   0.9503   1.0038   1.1628   1.1695   1.2011   1.2568
     1.3388   1.4352   1.5496   1.5781   1.8135   1.8618   1.8947   1.9034
     1.9294   1.9412   1.9984   2.0269   2.0567   2.0778   2.1118   2.1626
     2.2180   2.2227   2.3271   2.3350   2.4606   2.4915   2.6109   2.8450

          k = 0.0000 0.3231-0.3438 ( 50184 PWs)   bands (ev):

   -17.5489 -17.5489 -17.5483 -17.5483 -13.2628 -13.2628 -13.2595 -13.2595
   -13.2543 -13.2543 -13.2443 -13.2443 -13.2114 -13.2114 -13.2113 -13.2113
   -13.2057 -13.2057 -13.2055 -13.2055 -13.2005 -13.2005 -13.2001 -13.2001
    -8.7888  -8.7888  -8.6206  -8.6206  -8.3415  -8.3415  -8.3359  -8.3359
    -8.3086  -8.3086  -8.2366  -8.2366  -4.6974  -4.6974  -4.3961  -4.3961
    -4.3772  -4.3772  -4.3688  -4.3688  -4.3609  -4.3609  -4.3525  -4.3525
    -4.3412  -4.3412  -4.1728  -4.1728   0.2332   0.2332   0.3284   0.3284
     0.6887   0.6887   0.7296   0.7296   1.0476   1.0476   1.0827   1.0827
     1.4392   1.4392   1.5506   1.5506   1.6518   1.6518   1.7344   1.7344
     1.8791   1.8791   1.9172   1.9172   2.2051   2.2051   2.2160   2.2160
     2.2525   2.2525   2.2605   2.2605   2.4609   2.4609   2.4998   2.4998

          k = 0.3332 0.0000 0.0000 ( 50214 PWs)   bands (ev):

   -17.5492 -17.5486 -17.5485 -17.5480 -13.2700 -13.2667 -13.2556 -13.2545
   -13.2544 -13.2520 -13.2443 -13.2443 -13.2116 -13.2116 -13.2111 -13.2110
   -13.2059 -13.2057 -13.2056 -13.2054 -13.2005 -13.2004 -13.2002 -13.2000
    -8.8691  -8.6877  -8.6484  -8.4798  -8.4588  -8.4534  -8.3532  -8.3379
    -8.2913  -8.2361  -8.2339  -8.2172  -4.9342  -4.4953  -4.4818  -4.3874
    -4.3828  -4.3797  -4.3754  -4.3746  -4.3686  -4.3594  -4.3501  -4.3476
    -4.3445  -4.2782  -4.2555  -3.8976  -0.1499  -0.0374   0.1745   0.3188
     0.3274   0.4552   0.8445   1.0260   1.1130   1.1467   1.1678   1.2726
     1.3149   1.4800   1.5487   1.6513   1.8460   1.8473   1.8980   1.9275
     1.9533   1.9701   2.0263   2.0272   2.0770   2.0993   2.1311   2.1812
     2.2284   2.2646   2.3299   2.3599   2.3922   2.4219   2.5747   2.7754

          k = 0.3332 0.0000-0.3438 ( 50200 PWs)   bands (ev):

   -17.5489 -17.5489 -17.5483 -17.5483 -13.2628 -13.2628 -13.2595 -13.2595
   -13.2543 -13.2543 -13.2443 -13.2443 -13.2114 -13.2114 -13.2113 -13.2113
   -13.2057 -13.2057 -13.2055 -13.2055 -13.2005 -13.2005 -13.2001 -13.2001
    -8.7894  -8.7894  -8.6207  -8.6207  -8.3499  -8.3499  -8.3376  -8.3376
    -8.3006  -8.3006  -8.2350  -8.2350  -4.7032  -4.7032  -4.4009  -4.4009
    -4.3813  -4.3813  -4.3660  -4.3660  -4.3578  -4.3578  -4.3459  -4.3459
    -4.3345  -4.3345  -4.1692  -4.1692   0.2374   0.2374   0.3358   0.3358
     0.6508   0.6508   0.7378   0.7378   0.9597   0.9597   1.0986   1.0986
     1.4831   1.4831   1.5171   1.5171   1.7213   1.7213   1.7415   1.7415
     1.9554   1.9554   1.9839   1.9839   2.1638   2.1638   2.2316   2.2316
     2.2413   2.2413   2.2875   2.2875   2.3946   2.3946   2.4224   2.4224

          k = 0.3332 0.3231 0.0000 ( 50152 PWs)   bands (ev):

   -17.5490 -17.5487 -17.5484 -17.5481 -13.2701 -13.2683 -13.2579 -13.2553
   -13.2509 -13.2486 -13.2460 -13.2445 -13.2116 -13.2116 -13.2111 -13.2111
   -13.2058 -13.2057 -13.2055 -13.2054 -13.2004 -13.2003 -13.2003 -13.2001
    -8.8140  -8.7117  -8.5792  -8.4632  -8.4577  -8.4355  -8.4108  -8.4049
    -8.3377  -8.2994  -8.2096  -8.1814  -4.7963  -4.5735  -4.4297  -4.3851
    -4.3781  -4.3759  -4.3682  -4.3632  -4.3591  -4.3578  -4.3558  -4.3526
    -4.3450  -4.3151  -4.1677  -3.9796  -0.1365  -0.0883  -0.0417   0.1373
     0.3225   0.5194   0.8797   1.0348   1.0578   1.0653   1.1886   1.4421
     1.4786   1.5431   1.6858   1.7749   1.7806   1.8696   1.8710   1.9197
     1.9351   1.9471   1.9980   2.0211   2.0620   2.0739   2.0979   2.1167
     2.1182   2.1808   2.2270   2.2885   2.4639   2.5332   2.6387   2.8461

          k = 0.3332 0.3231-0.3438 ( 50168 PWs)   bands (ev):

   -17.5487 -17.5487 -17.5484 -17.5484 -13.2635 -13.2635 -13.2615 -13.2615
   -13.2503 -13.2503 -13.2456 -13.2456 -13.2113 -13.2113 -13.2113 -13.2113
   -13.2057 -13.2057 -13.2056 -13.2056 -13.2004 -13.2004 -13.2002 -13.2002
    -8.7330  -8.7330  -8.6336  -8.6336  -8.4117  -8.4117  -8.3549  -8.3549
    -8.2721  -8.2721  -8.2465  -8.2465  -4.5872  -4.5872  -4.4317  -4.4317
    -4.3747  -4.3747  -4.3637  -4.3637  -4.3545  -4.3545  -4.3449  -4.3449
    -4.3164  -4.3164  -4.2313  -4.2313   0.0256   0.0256   0.3780   0.3780
     0.6329   0.6329   0.7472   0.7472   0.9629   0.9629   1.1532   1.1532
     1.4328   1.4328   1.5383   1.5383   1.7550   1.7550   1.8714   1.8714
     1.9352   1.9352   2.0501   2.0501   2.0639   2.0639   2.1654   2.1654
     2.2044   2.2044   2.2860   2.2860   2.3771   2.3771   2.5227   2.5227

     highest occupied level (ev):     3.2901

!    total energy              =   -8165.84469137 Ry
     estimated scf accuracy    <       0.00000007 Ry

     The total energy is the sum of the following terms:
     one-electron contribution =    -334.61100042 Ry
     hartree contribution      =     254.84799033 Ry
     xc contribution           =    -792.70916564 Ry
     ewald contribution        =    -643.75333541 Ry
     one-center paw contrib.   =   -6649.61918023 Ry

     convergence has been achieved in   7 iterations

     Forces acting on atoms (cartesian axes, Ry/au):

     atom    1 type  1   force =    -0.00311835   -0.00492469    0.00000000
     atom    2 type  1   force =     0.00311835    0.00492469    0.00000000
     atom    3 type  1   force =    -0.00311835    0.00492469   -0.00000000
     atom    4 type  1   force =     0.00311835   -0.00492469    0.00000000
     atom    5 type  2   force =     0.00000000    0.00000000    0.00000000
     atom    6 type  2   force =     0.00000000    0.00000000    0.00000000
     atom    7 type  2   force =    -0.00000000    0.00000000   -0.00000000
     atom    8 type  2   force =     0.00000000    0.00000000    0.00000000
     atom    9 type  3   force =    -0.00018037    0.00220877    0.00000000
     atom   10 type  3   force =     0.00018037   -0.00220877    0.00000000
     atom   11 type  3   force =    -0.00018037   -0.00220877   -0.00000000
     atom   12 type  3   force =     0.00018037    0.00220877   -0.00000000
     atom   13 type  3   force =    -0.00327940   -0.00412737    0.00155886
     atom   14 type  3   force =     0.00327940    0.00412737    0.00155886
     atom   15 type  3   force =    -0.00327940    0.00412737   -0.00155886
     atom   16 type  3   force =     0.00327940   -0.00412737   -0.00155886
     atom   17 type  3   force =     0.00327940    0.00412737   -0.00155886
     atom   18 type  3   force =    -0.00327940   -0.00412737   -0.00155886
     atom   19 type  3   force =     0.00327940   -0.00412737    0.00155886
     atom   20 type  3   force =    -0.00327940    0.00412737    0.00155886

     Total force =     0.019933     Total SCF correction =     0.000298


     Computing stress (Cartesian axis) and pressure

          total   stress  (Ry/bohr**3)                   (kbar)     P=       -1.15
   0.00001014   0.00000000   0.00000000            1.49        0.00        0.00
   0.00000000  -0.00003200   0.00000000            0.00       -4.71        0.00
   0.00000000   0.00000000  -0.00000163            0.00        0.00       -0.24

     Energy error            =      6.4E-04 Ry
     Gradient error          =      4.9E-03 Ry/Bohr
     Cell gradient error     =      4.7E+00 kbar

     number of scf cycles    =   2
     number of bfgs steps    =   1

     enthalpy           old  =   -8165.8440525879 Ry
     enthalpy           new  =   -8165.8446913672 Ry

     CASE: enthalpy          _new < enthalpy          _old


     WARNING: bfgs curvature condition failed, Theta= 0.856
     new trust radius        =       0.0148302790 bohr
     new conv_thr            =       0.0000000049 Ry

     new unit-cell volume =   6384.74024 a.u.^3 (   946.12089 Ang^3 )
     density =      5.06043 g/cm^3

CELL_PARAMETERS (angstrom)
   8.581599248   0.000000000   0.000000000
   0.000000000   8.840428735   0.000000000
   0.000000000   0.000000000  12.471108997

ATOMIC_POSITIONS (crystal)
Cs               0.5046717365        0.4593161750        0.2500000000
Cs               0.4953282635        0.5406838250        0.7500000000
Cs               0.0046717365        0.0406838250        0.7500000000
Cs               0.9953282635        0.9593161750        0.2500000000
Pb               0.5000000000        0.0000000000        0.0000000000
Pb               0.5000000000        0.0000000000        0.5000000000
Pb              -0.0000000000        0.5000000000       -0.0000000000
Pb               0.0000000000        0.5000000000        0.5000000000
I                0.5619893383        0.0014137550        0.2500000000
I                0.4380106617        0.9985862450        0.7500000000
I                0.0619893383        0.4985862450        0.7500000000
I                0.9380106617        0.5014137550        0.2500000000
I                0.6968429523        0.3048147703        0.9643737514
I                0.3031570477        0.6951852297        0.4643737514
I                0.1968429523        0.1951852297        0.0356262486
I                0.8031570477        0.8048147703        0.5356262486
I                0.3031570477        0.6951852297        0.0356262486
I                0.6968429523        0.3048147703        0.5356262486
I                0.8031570477        0.8048147703        0.9643737514
I                0.1968429523        0.1951852297        0.4643737514



     Writing config-only to output data dir ./tmp/cspbi3_gamma_s1.save/ :
     XML data file
     NEW-OLD atomic charge density approx. for the potential
     New effective cutoffs (rho, wfc):  481.61   60.19

     total cpu time spent up to now is     3007.6 secs

     Self-consistent Calculation

     iteration #  1     ecut=    60.00 Ry     beta= 0.50
     Davidson diagonalization with overlap
     ethr =  1.00E-06,  avg # of iterations =  3.0

     Threshold (ethr) on eigenvalues was too large:
     Diagonalizing with lowered threshold

     Davidson diagonalization with overlap
     ethr =  5.17E-09,  avg # of iterations =  7.2

     total cpu time spent up to now is     3383.0 secs

     total energy              =   -8165.84532969 Ry
     estimated scf accuracy    <       0.00001662 Ry

     iteration #  2     ecut=    60.00 Ry     beta= 0.50
     Davidson diagonalization with overlap
     ethr =  9.44E-09,  avg # of iterations =  4.0

     total cpu time spent up to now is     3523.4 secs

     total energy              =   -8165.84533643 Ry
     estimated scf accuracy    <       0.00000176 Ry

     iteration #  3     ecut=    60.00 Ry     beta= 0.50
     Davidson diagonalization with overlap
     ethr =  1.00E-09,  avg # of iterations =  2.4

     total cpu time spent up to now is     3619.7 secs

     total energy              =   -8165.84533731 Ry
     estimated scf accuracy    <       0.00000062 Ry

     iteration #  4     ecut=    60.00 Ry     beta= 0.50
     Davidson diagonalization with overlap
     ethr =  3.51E-10,  avg # of iterations =  5.0

     total cpu time spent up to now is     3747.1 secs

     total energy              =   -8165.84533761 Ry
     estimated scf accuracy    <       0.00000040 Ry

     iteration #  5     ecut=    60.00 Ry     beta= 0.50
     Davidson diagonalization with overlap
     ethr =  2.26E-10,  avg # of iterations =  1.0

     total cpu time spent up to now is     3827.3 secs

     total energy              =   -8165.84533765 Ry
     estimated scf accuracy    <       0.00000044 Ry

     iteration #  6     ecut=    60.00 Ry     beta= 0.50
     Davidson diagonalization with overlap
     ethr =  2.26E-10,  avg # of iterations =  1.0

     total cpu time spent up to now is     3906.1 secs

     total energy              =   -8165.84533763 Ry
     estimated scf accuracy    <       0.00000013 Ry

     iteration #  7     ecut=    60.00 Ry     beta= 0.50
     Davidson diagonalization with overlap
     ethr =  7.49E-11,  avg # of iterations =  4.0

     total cpu time spent up to now is     4001.5 secs

     total energy              =   -8165.84533764 Ry
     estimated scf accuracy    <       0.00000002 Ry

     iteration #  8     ecut=    60.00 Ry     beta= 0.50
     Davidson diagonalization with overlap
     ethr =  9.63E-12,  avg # of iterations =  3.0

     total cpu time spent up to now is     4102.5 secs

     total energy              =   -8165.84533764 Ry
     estimated scf accuracy    <          9.0E-09 Ry

     iteration #  9     ecut=    60.00 Ry     beta= 0.50
     Davidson diagonalization with overlap
     ethr =  5.12E-12,  avg # of iterations =  2.4

     total cpu time spent up to now is     4204.9 secs

     End of self-consistent calculation

          k = 0.0000 0.0000 0.0000 ( 50101 PWs)   bands (ev):

   -17.5435 -17.5428 -17.5422 -17.5416 -13.2642 -13.2576 -13.2520 -13.2520
   -13.2498 -13.2429 -13.2317 -13.2317 -13.2037 -13.2036 -13.2031 -13.2031
   -13.1986 -13.1983 -13.1982 -13.1979 -13.1932 -13.1930 -13.1924 -13.1923
    -8.9343  -8.7202  -8.5070  -8.4541  -8.4453  -8.3974  -8.3952  -8.3831
    -8.3793  -8.1990  -8.1788  -8.1766  -5.1542  -4.6233  -4.3900  -4.3884
    -4.3805  -4.3695  -4.3666  -4.3658  -4.3593  -4.3592  -4.3586  -4.3494
    -4.3312  -4.3286  -4.1067  -3.6126  -0.2027  -0.1267  -0.1004  -0.0205
     0.0295   0.0514   1.0031   1.2422   1.2618   1.2654   1.2730   1.3987
     1.5774   1.7499   1.7717   1.7785   1.8356   1.8436   1.8914   1.9367
     1.9453   1.9470   1.9999   2.0218   2.0503   2.1645   2.2387   2.2598
     2.2629   2.2642   2.3429   2.4182   2.5150   2.5678   2.8284   3.2988

          k = 0.0000 0.0000-0.3439 ( 50118 PWs)   bands (ev):

   -17.5431 -17.5431 -17.5419 -17.5419 -13.2570 -13.2570 -13.2521 -13.2521
   -13.2502 -13.2502 -13.2317 -13.2317 -13.2034 -13.2034 -13.2034 -13.2034
   -13.1984 -13.1984 -13.1981 -13.1981 -13.1931 -13.1931 -13.1924 -13.1924
    -8.8539  -8.8539  -8.4763  -8.4763  -8.3917  -8.3917  -8.3878  -8.3878
    -8.2991  -8.2991  -8.1773  -8.1773  -4.9003  -4.9003  -4.3856  -4.3856
    -4.3742  -4.3742  -4.3594  -4.3594  -4.3514  -4.3514  -4.3485  -4.3485
    -4.3467  -4.3467  -3.9114  -3.9114  -0.0728  -0.0728  -0.0536  -0.0536
     0.6130   0.6130   0.8489   0.8489   1.1154   1.1154   1.3427   1.3427
     1.3866   1.3866   1.7437   1.7437   1.8359   1.8359   1.9477   1.9477
     1.9674   1.9674   2.0044   2.0044   2.1683   2.1683   2.1792   2.1792
     2.2558   2.2558   2.2607   2.2607   2.4621   2.4621   2.9055   2.9055

          k = 0.0000 0.3234 0.0000 ( 50121 PWs)   bands (ev):

   -17.5431 -17.5425 -17.5425 -17.5419 -13.2625 -13.2592 -13.2481 -13.2470
   -13.2470 -13.2445 -13.2368 -13.2368 -13.2037 -13.2036 -13.2031 -13.2031
   -13.1985 -13.1983 -13.1982 -13.1980 -13.1930 -13.1928 -13.1926 -13.1925
    -8.8639  -8.6815  -8.6464  -8.4797  -8.4522  -8.4459  -8.3429  -8.3299
    -8.2872  -8.2330  -8.2293  -8.2165  -4.9280  -4.4915  -4.4674  -4.3902
    -4.3770  -4.3723  -4.3639  -4.3592  -4.3543  -4.3540  -4.3518  -4.3446
    -4.3385  -4.2787  -4.2687  -3.8928  -0.1409  -0.0293   0.1714   0.3131
     0.3363   0.4423   0.9521   1.0079   1.1672   1.1710   1.2044   1.2610
     1.3432   1.4414   1.5560   1.5833   1.8187   1.8661   1.9002   1.9081
     1.9358   1.9478   2.0027   2.0319   2.0632   2.0840   2.1170   2.1674
     2.2249   2.2283   2.3321   2.3395   2.4638   2.4972   2.6155   2.8499

          k = 0.0000 0.3234-0.3439 ( 50184 PWs)   bands (ev):

   -17.5428 -17.5428 -17.5422 -17.5422 -13.2553 -13.2553 -13.2519 -13.2519
   -13.2469 -13.2469 -13.2368 -13.2368 -13.2034 -13.2034 -13.2034 -13.2034
   -13.1983 -13.1983 -13.1982 -13.1982 -13.1929 -13.1929 -13.1926 -13.1926
    -8.7849  -8.7849  -8.6160  -8.6160  -8.3374  -8.3374  -8.3308  -8.3308
    -8.3033  -8.3033  -8.2318  -8.2318  -4.6925  -4.6925  -4.3900  -4.3900
    -4.3712  -4.3712  -4.3630  -4.3630  -4.3549  -4.3549  -4.3465  -4.3465
    -4.3351  -4.3351  -4.1660  -4.1660   0.2357   0.2357   0.3333   0.3333
     0.6939   0.6939   0.7345   0.7345   1.0491   1.0491   1.0870   1.0870
     1.4445   1.4445   1.5548   1.5548   1.6569   1.6569   1.7387   1.7387
     1.8861   1.8861   1.9242   1.9242   2.2103   2.2103   2.2215   2.2215
     2.2577   2.2577   2.2659   2.2659   2.4657   2.4657   2.5036   2.5036

          k = 0.3331 0.0000 0.0000 ( 50214 PWs)   bands (ev):

   -17.5431 -17.5426 -17.5424 -17.5419 -13.2625 -13.2592 -13.2481 -13.2470
   -13.2470 -13.2445 -13.2368 -13.2368 -13.2037 -13.2037 -13.2031 -13.2031
   -13.1985 -13.1983 -13.1982 -13.1980 -13.1930 -13.1929 -13.1926 -13.1925
    -8.8652  -8.6832  -8.6451  -8.4762  -8.4533  -8.4478  -8.3483  -8.3332
    -8.2856  -8.2310  -8.2299  -8.2122  -4.9294  -4.4888  -4.4758  -4.3814
    -4.3769  -4.3736  -4.3695  -4.3688  -4.3627  -4.3532  -4.3440  -4.3416
    -4.3385  -4.2719  -4.2507  -3.8912  -0.1450  -0.0320   0.1784   0.3224
     0.3305   0.4576   0.8508   1.0307   1.1195   1.1515   1.1721   1.2768
     1.3201   1.4820   1.5543   1.6541   1.8498   1.8511   1.9016   1.9327
     1.9588   1.9737   2.0302   2.0310   2.0812   2.1046   2.1369   2.1858
     2.2336   2.2700   2.3376   2.3663   2.3984   2.4277   2.5816   2.7839

          k = 0.3331 0.0000-0.3439 ( 50200 PWs)   bands (ev):

   -17.5428 -17.5428 -17.5422 -17.5422 -13.2553 -13.2553 -13.2519 -13.2519
   -13.2469 -13.2469 -13.2368 -13.2368 -13.2034 -13.2034 -13.2034 -13.2034
   -13.1983 -13.1983 -13.1982 -13.1982 -13.1929 -13.1929 -13.1926 -13.1926
    -8.7856  -8.7856  -8.6162  -8.6162  -8.3448  -8.3448  -8.3325  -8.3325
    -8.2959  -8.2959  -8.2303  -8.2303  -4.6981  -4.6981  -4.3945  -4.3945
    -4.3755  -4.3755  -4.3600  -4.3600  -4.3517  -4.3517  -4.3399  -4.3399
    -4.3287  -4.3287  -4.1629  -4.1629   0.2413   0.2413   0.3388   0.3388
     0.6555   0.6555   0.7426   0.7426   0.9662   0.9662   1.1029   1.1029
     1.4875   1.4875   1.5215   1.5215   1.7274   1.7274   1.7463   1.7463
     1.9580   1.9580   1.9852   1.9852   2.1684   2.1684   2.2374   2.2374
     2.2466   2.2466   2.2940   2.2940   2.4018   2.4018   2.4297   2.4297

          k = 0.3331 0.3234 0.0000 ( 50152 PWs)   bands (ev):

   -17.5430 -17.5426 -17.5423 -17.5421 -13.2627 -13.2609 -13.2504 -13.2478
   -13.2435 -13.2412 -13.2385 -13.2370 -13.2037 -13.2037 -13.2031 -13.2031
   -13.1985 -13.1984 -13.1981 -13.1980 -13.1929 -13.1928 -13.1927 -13.1926
    -8.8099  -8.7070  -8.5756  -8.4577  -8.4522  -8.4314  -8.4067  -8.4006
    -8.3329  -8.2947  -8.2046  -8.1762  -4.7908  -4.5672  -4.4236  -4.3789
    -4.3722  -4.3698  -4.3622  -4.3572  -4.3530  -4.3518  -4.3498  -4.3467
    -4.3391  -4.3090  -4.1623  -3.9733  -0.1315  -0.0831  -0.0389   0.1396
     0.3267   0.5230   0.8839   1.0390   1.0619   1.0693   1.1929   1.4471
     1.4829   1.5485   1.6897   1.7804   1.7858   1.8743   1.8755   1.9235
     1.9406   1.9525   2.0031   2.0269   2.0660   2.0790   2.1026   2.1222
     2.1226   2.1868   2.2325   2.2937   2.4696   2.5390   2.6447   2.8532

          k = 0.3331 0.3234-0.3439 ( 50168 PWs)   bands (ev):

   -17.5427 -17.5427 -17.5423 -17.5423 -13.2561 -13.2561 -13.2540 -13.2540
   -13.2428 -13.2428 -13.2381 -13.2381 -13.2034 -13.2034 -13.2034 -13.2034
   -13.1983 -13.1983 -13.1982 -13.1982 -13.1928 -13.1928 -13.1927 -13.1927
    -8.7289  -8.7289  -8.6289  -8.6289  -8.4075  -8.4075  -8.3501  -8.3501
    -8.2671  -8.2671  -8.2416  -8.2416  -4.5816  -4.5816  -4.4254  -4.4254
    -4.3688  -4.3688  -4.3577  -4.3577  -4.3485  -4.3485  -4.3389  -4.3389
    -4.3106  -4.3106  -4.2251  -4.2251   0.0284   0.0284   0.3822   0.3822
     0.6371   0.6371   0.7522   0.7522   0.9670   0.9670   1.1574   1.1574
     1.4374   1.4374   1.5429   1.5429   1.7597   1.7597   1.8760   1.8760
     1.9406   1.9406   2.0547   2.0547   2.0697   2.0697   2.1704   2.1704
     2.2095   2.2095   2.2915   2.2915   2.3827   2.3827   2.5291   2.5291

     highest occupied level (ev):     3.2988

!    total energy              =   -8165.84533764 Ry
     estimated scf accuracy    <          1.9E-09 Ry

     The total energy is the sum of the following terms:
     one-electron contribution =    -334.40449394 Ry
     hartree contribution      =     254.78340159 Ry
     xc contribution           =    -792.71271795 Ry
     ewald contribution        =    -643.89208474 Ry
     one-center paw contrib.   =   -6649.61944259 Ry

     convergence has been achieved in   9 iterations

     Forces acting on atoms (cartesian axes, Ry/au):

     atom    1 type  1   force =    -0.00304145   -0.00482198    0.00000000
     atom    2 type  1   force =     0.00304145    0.00482198    0.00000000
     atom    3 type  1   force =    -0.00304145    0.00482198   -0.00000000
     atom    4 type  1   force =     0.00304145   -0.00482198    0.00000000
     atom    5 type  2   force =    -0.00000000    0.00000000    0.00000000
     atom    6 type  2   force =     0.00000000    0.00000000    0.00000000
     atom    7 type  2   force =     0.00000000    0.00000000   -0.00000000
     atom    8 type  2   force =     0.00000000    0.00000000    0.00000000
     atom    9 type  3   force =    -0.00009141    0.00218950    0.00000000
     atom   10 type  3   force =     0.00009141   -0.00218950    0.00000000
     atom   11 type  3   force =    -0.00009141   -0.00218950    0.00000000
     atom   12 type  3   force =     0.00009141    0.00218950    0.00000000
     atom   13 type  3   force =    -0.00286836   -0.00363278    0.00150369
     atom   14 type  3   force =     0.00286836    0.00363278    0.00150369
     atom   15 type  3   force =    -0.00286836    0.00363278   -0.00150369
     atom   16 type  3   force =     0.00286836   -0.00363278   -0.00150369
     atom   17 type  3   force =     0.00286836    0.00363278   -0.00150369
     atom   18 type  3   force =    -0.00286836   -0.00363278   -0.00150369
     atom   19 type  3   force =     0.00286836   -0.00363278    0.00150369
     atom   20 type  3   force =    -0.00286836    0.00363278    0.00150369

     Total force =     0.018404     Total SCF correction =     0.000035


     Computing stress (Cartesian axis) and pressure

          total   stress  (Ry/bohr**3)                   (kbar)     P=       -1.05
   0.00000946   0.00000000   0.00000000            1.39        0.00        0.00
   0.00000000  -0.00002973   0.00000000            0.00       -4.37        0.00
   0.00000000   0.00000000  -0.00000122            0.00        0.00       -0.18

     Energy error            =      6.5E-04 Ry
     Gradient error          =      4.8E-03 Ry/Bohr
     Cell gradient error     =      4.4E+00 kbar

     number of scf cycles    =   3
     number of bfgs steps    =   2

     enthalpy           old  =   -8165.8446913672 Ry
     enthalpy           new  =   -8165.8453376430 Ry

     CASE: enthalpy          _new < enthalpy          _old

     new trust radius        =       0.0222585561 bohr
     new conv_thr            =       0.0000000048 Ry

     new unit-cell volume =   6378.34678 a.u.^3 (   945.17348 Ang^3 )
     density =      5.06550 g/cm^3

CELL_PARAMETERS (angstrom)
   8.585461919   0.000000000   0.000000000
   0.000000000   8.828115598   0.000000000
   0.000000000   0.000000000  12.470384620

ATOMIC_POSITIONS (crystal)
Cs               0.5043262077        0.4587892038        0.2500000000
Cs               0.4956737923        0.5412107962        0.7500000000
Cs               0.0043262077        0.0412107962        0.7500000000
Cs               0.9956737923        0.9587892038        0.2500000000
Pb               0.5000000000        0.0000000000        0.0000000000
Pb               0.5000000000        0.0000000000        0.5000000000
Pb              -0.0000000000        0.5000000000       -0.0000000000
Pb               0.0000000000        0.5000000000        0.5000000000
I                0.5619749729        0.0016524241        0.2500000000
I                0.4380250271        0.9983475759        0.7500000000
I                0.0619749729        0.4983475759        0.7500000000
I                0.9380250271        0.5016524241        0.2500000000
I                0.6965007550        0.3043978079        0.9644913390
I                0.3034992450        0.6956021921        0.4644913390
I                0.1965007550        0.1956021921        0.0355086610
I                0.8034992450        0.8043978079        0.5355086610
I                0.3034992450        0.6956021921        0.0355086610
I                0.6965007550        0.3043978079        0.5355086610
I                0.8034992450        0.8043978079        0.9644913390
I                0.1965007550        0.1956021921        0.4644913390



     Writing config-only to output data dir ./tmp/cspbi3_gamma_s1.save/ :
     XML data file
     NEW-OLD atomic charge density approx. for the potential
     New effective cutoffs (rho, wfc):  482.94   60.35

     total cpu time spent up to now is     4343.6 secs

     Self-consistent Calculation

     iteration #  1     ecut=    60.00 Ry     beta= 0.50
     Davidson diagonalization with overlap
     ethr =  1.00E-06,  avg # of iterations =  3.2

     Threshold (ethr) on eigenvalues was too large:
     Diagonalizing with lowered threshold

     Davidson diagonalization with overlap
     ethr =  1.18E-08,  avg # of iterations =  6.0

     total cpu time spent up to now is     4692.1 secs

     total energy              =   -8165.84619215 Ry
     estimated scf accuracy    <       0.00003597 Ry

     iteration #  2     ecut=    60.00 Ry     beta= 0.50
     Davidson diagonalization with overlap
     ethr =  2.04E-08,  avg # of iterations =  4.0

     total cpu time spent up to now is     4822.6 secs

     total energy              =   -8165.84620758 Ry
     estimated scf accuracy    <       0.00000425 Ry

     iteration #  3     ecut=    60.00 Ry     beta= 0.50
     Davidson diagonalization with overlap
     ethr =  2.41E-09,  avg # of iterations =  1.8

     total cpu time spent up to now is     4909.0 secs

     total energy              =   -8165.84620967 Ry
     estimated scf accuracy    <       0.00000143 Ry

     iteration #  4     ecut=    60.00 Ry     beta= 0.50
     Davidson diagonalization with overlap
     ethr =  8.12E-10,  avg # of iterations =  5.2

     total cpu time spent up to now is     5029.0 secs

     total energy              =   -8165.84621032 Ry
     estimated scf accuracy    <       0.00000089 Ry

     iteration #  5     ecut=    60.00 Ry     beta= 0.50
     Davidson diagonalization with overlap
     ethr =  5.06E-10,  avg # of iterations =  1.0

     total cpu time spent up to now is     5107.1 secs

     total energy              =   -8165.84621041 Ry
     estimated scf accuracy    <       0.00000108 Ry

     iteration #  6     ecut=    60.00 Ry     beta= 0.50
     Davidson diagonalization with overlap
     ethr =  5.06E-10,  avg # of iterations =  2.0

     total cpu time spent up to now is     5195.4 secs

     total energy              =   -8165.84621041 Ry
     estimated scf accuracy    <       0.00000013 Ry

     iteration #  7     ecut=    60.00 Ry     beta= 0.50
     Davidson diagonalization with overlap
     ethr =  7.52E-11,  avg # of iterations =  4.0

     total cpu time spent up to now is     5289.1 secs

     total energy              =   -8165.84621043 Ry
     estimated scf accuracy    <       0.00000001 Ry

     iteration #  8     ecut=    60.00 Ry     beta= 0.50
     Davidson diagonalization with overlap
     ethr =  6.24E-12,  avg # of iterations =  4.6

     total cpu time spent up to now is     5419.2 secs

     total energy              =   -8165.84621044 Ry
     estimated scf accuracy    <       0.00000001 Ry

     iteration #  9     ecut=    60.00 Ry     beta= 0.50
     Davidson diagonalization with overlap
     ethr =  6.24E-12,  avg # of iterations =  3.9

     total cpu time spent up to now is     5519.0 secs

     End of self-consistent calculation

          k = 0.0000 0.0000 0.0000 ( 50101 PWs)   bands (ev):

   -17.5345 -17.5338 -17.5332 -17.5327 -13.2536 -13.2469 -13.2416 -13.2416
   -13.2392 -13.2322 -13.2210 -13.2210 -13.1923 -13.1923 -13.1918 -13.1917
   -13.1882 -13.1879 -13.1878 -13.1875 -13.1825 -13.1823 -13.1817 -13.1816
    -8.9289  -8.7155  -8.4982  -8.4457  -8.4368  -8.3906  -8.3894  -8.3764
    -8.3736  -8.1908  -8.1709  -8.1693  -5.1485  -4.6166  -4.3810  -4.3798
    -4.3718  -4.3601  -4.3574  -4.3571  -4.3505  -4.3505  -4.3499  -4.3407
    -4.3221  -4.3200  -4.0955  -3.6010  -0.1957  -0.1242  -0.0957  -0.0167
     0.0338   0.0583   1.0079   1.2471   1.2689   1.2714   1.2785   1.4081
     1.5835   1.7583   1.7794   1.7850   1.8450   1.8520   1.9029   1.9442
     1.9528   1.9548   2.0078   2.0262   2.0570   2.1708   2.2470   2.2684
     2.2720   2.2723   2.3513   2.4262   2.5247   2.5764   2.8409   3.3119

          k = 0.0000 0.0000-0.3439 ( 50118 PWs)   bands (ev):

   -17.5342 -17.5342 -17.5329 -17.5329 -13.2464 -13.2464 -13.2416 -13.2416
   -13.2395 -13.2395 -13.2210 -13.2210 -13.1921 -13.1921 -13.1920 -13.1920
   -13.1880 -13.1880 -13.1877 -13.1877 -13.1824 -13.1824 -13.1817 -13.1817
    -8.8486  -8.8486  -8.4676  -8.4676  -8.3849  -8.3849  -8.3820  -8.3820
    -8.2911  -8.2911  -8.1698  -8.1698  -4.8944  -4.8944  -4.3767  -4.3767
    -4.3656  -4.3656  -4.3505  -4.3505  -4.3423  -4.3423  -4.3396  -4.3396
    -4.3378  -4.3378  -3.8999  -3.8999  -0.0704  -0.0704  -0.0491  -0.0491
     0.6195   0.6195   0.8572   0.8572   1.1204   1.1204   1.3508   1.3508
     1.3923   1.3923   1.7530   1.7530   1.8442   1.8442   1.9549   1.9549
     1.9751   1.9751   2.0118   2.0118   2.1772   2.1772   2.1852   2.1852
     2.2631   2.2631   2.2702   2.2702   2.4711   2.4711   2.9182   2.9182

          k = 0.0000 0.3238 0.0000 ( 50121 PWs)   bands (ev):

   -17.5342 -17.5335 -17.5335 -17.5329 -13.2519 -13.2486 -13.2374 -13.2365
   -13.2365 -13.2339 -13.2262 -13.2262 -13.1923 -13.1923 -13.1918 -13.1917
   -13.1881 -13.1879 -13.1878 -13.1876 -13.1823 -13.1822 -13.1819 -13.1818
    -8.8582  -8.6746  -8.6413  -8.4735  -8.4438  -8.4375  -8.3366  -8.3237
    -8.2788  -8.2263  -8.2220  -8.2084  -4.9211  -4.4824  -4.4596  -4.3812
    -4.3683  -4.3633  -4.3546  -4.3504  -4.3452  -4.3448  -4.3431  -4.3358
    -4.3298  -4.2694  -4.2601  -3.8831  -0.1338  -0.0215   0.1749   0.3165
     0.3446   0.4496   0.9550   1.0142   1.1734   1.1737   1.2094   1.2673
     1.3498   1.4508   1.5655   1.5911   1.8266   1.8726   1.9084   1.9150
     1.9454   1.9575   2.0093   2.0394   2.0730   2.0933   2.1250   2.1745
     2.2351   2.2367   2.3398   2.3462   2.4688   2.5057   2.6226   2.8572

          k = 0.0000 0.3238-0.3439 ( 50184 PWs)   bands (ev):

   -17.5338 -17.5338 -17.5332 -17.5332 -13.2447 -13.2447 -13.2413 -13.2413
   -13.2365 -13.2365 -13.2262 -13.2262 -13.1921 -13.1921 -13.1920 -13.1920
   -13.1879 -13.1879 -13.1878 -13.1878 -13.1822 -13.1822 -13.1819 -13.1819
    -8.7792  -8.7792  -8.6090  -8.6090  -8.3314  -8.3314  -8.3230  -8.3230
    -8.2951  -8.2951  -8.2246  -8.2246  -4.6855  -4.6855  -4.3810  -4.3810
    -4.3623  -4.3623  -4.3544  -4.3544  -4.3460  -4.3460  -4.3375  -4.3375
    -4.3260  -4.3260  -4.1561  -4.1561   0.2394   0.2394   0.3405   0.3405
     0.7016   0.7016   0.7417   0.7417   1.0515   1.0515   1.0934   1.0934
     1.4524   1.4524   1.5611   1.5611   1.6647   1.6647   1.7453   1.7453
     1.8964   1.8964   1.9348   1.9348   2.2182   2.2182   2.2296   2.2296
     2.2657   2.2657   2.2741   2.2741   2.4732   2.4732   2.5095   2.5095

          k = 0.3330 0.0000 0.0000 ( 50214 PWs)   bands (ev):

   -17.5342 -17.5336 -17.5334 -17.5329 -13.2519 -13.2486 -13.2374 -13.2365
   -13.2365 -13.2339 -13.2262 -13.2262 -13.1923 -13.1923 -13.1918 -13.1917
   -13.1881 -13.1879 -13.1878 -13.1876 -13.1823 -13.1822 -13.1819 -13.1818
    -8.8594  -8.6763  -8.6402  -8.4708  -8.4448  -8.4393  -8.3411  -8.3262
    -8.2771  -8.2238  -8.2233  -8.2045  -4.9225  -4.4792  -4.4670  -4.3725
    -4.3680  -4.3647  -4.3609  -4.3602  -4.3540  -4.3440  -4.3348  -4.3327
    -4.3297  -4.2627  -4.2437  -3.8820  -0.1375  -0.0239   0.1842   0.3276
     0.3349   0.4609   0.8601   1.0376   1.1292   1.1587   1.1787   1.2829
     1.3280   1.4852   1.5628   1.6584   1.8555   1.8571   1.9070   1.9403
     1.9672   1.9790   2.0349   2.0381   2.0875   2.1128   2.1456   2.1928
     2.2415   2.2780   2.3489   2.3761   2.4079   2.4368   2.5919   2.7965

          k = 0.3330 0.0000-0.3439 ( 50200 PWs)   bands (ev):

   -17.5338 -17.5338 -17.5332 -17.5332 -13.2447 -13.2447 -13.2413 -13.2413
   -13.2365 -13.2365 -13.2262 -13.2262 -13.1921 -13.1921 -13.1920 -13.1920
   -13.1879 -13.1879 -13.1878 -13.1878 -13.1822 -13.1822 -13.1819 -13.1819
    -8.7799  -8.7799  -8.6095  -8.6095  -8.3373  -8.3373  -8.3247  -8.3247
    -8.2886  -8.2886  -8.2233  -8.2233  -4.6907  -4.6907  -4.3851  -4.3851
    -4.3669  -4.3669  -4.3513  -4.3513  -4.3427  -4.3427  -4.3311  -4.3311
    -4.3202  -4.3202  -4.1538  -4.1538   0.2470   0.2470   0.3431   0.3431
     0.6625   0.6625   0.7498   0.7498   0.9758   0.9758   1.1094   1.1094
     1.4938   1.4938   1.5283   1.5283   1.7360   1.7360   1.7541   1.7541
     1.9620   1.9620   1.9872   1.9872   2.1754   2.1754   2.2461   2.2461
     2.2547   2.2547   2.3038   2.3038   2.4128   2.4128   2.4409   2.4409

          k = 0.3330 0.3238 0.0000 ( 50152 PWs)   bands (ev):

   -17.5340 -17.5337 -17.5334 -17.5331 -13.2521 -13.2502 -13.2399 -13.2372
   -13.2329 -13.2306 -13.2280 -13.2264 -13.1923 -13.1923 -13.1918 -13.1918
   -13.1880 -13.1880 -13.1877 -13.1876 -13.1822 -13.1821 -13.1820 -13.1819
    -8.8037  -8.7000  -8.5702  -8.4494  -8.4438  -8.4253  -8.4005  -8.3942
    -8.3258  -8.2878  -8.1970  -8.1683  -4.7830  -4.5580  -4.4146  -4.3697
    -4.3634  -4.3608  -4.3534  -4.3485  -4.3439  -4.3430  -4.3408  -4.3378
    -4.3302  -4.3001  -4.1544  -3.9643  -0.1240  -0.0753  -0.0348   0.1428
     0.3328   0.5282   0.8902   1.0454   1.0682   1.0754   1.1994   1.4546
     1.4893   1.5567   1.6957   1.7887   1.7937   1.8814   1.8822   1.9291
     1.9488   1.9605   2.0109   2.0358   2.0719   2.0864   2.1100   2.1293
     2.1305   2.1957   2.2409   2.3017   2.4784   2.5479   2.6539   2.8640

          k = 0.3330 0.3238-0.3439 ( 50168 PWs)   bands (ev):

   -17.5337 -17.5337 -17.5334 -17.5334 -13.2455 -13.2455 -13.2434 -13.2434
   -13.2323 -13.2323 -13.2275 -13.2275 -13.1921 -13.1921 -13.1920 -13.1920
   -13.1879 -13.1879 -13.1878 -13.1878 -13.1821 -13.1821 -13.1820 -13.1820
    -8.7227  -8.7227  -8.6218  -8.6218  -8.4013  -8.4013  -8.3429  -8.3429
    -8.2596  -8.2596  -8.2341  -8.2341  -4.5734  -4.5734  -4.4162  -4.4162
    -4.3600  -4.3600  -4.3488  -4.3488  -4.3396  -4.3396  -4.3300  -4.3300
    -4.3019  -4.3019  -4.2160  -4.2160   0.0325   0.0325   0.3883   0.3883
     0.6434   0.6434   0.7597   0.7597   0.9733   0.9733   1.1638   1.1638
     1.4444   1.4444   1.5499   1.5499   1.7668   1.7668   1.8830   1.8830
     1.9489   1.9489   2.0615   2.0615   2.0785   2.0785   2.1780   2.1780
     2.2172   2.2172   2.2998   2.2998   2.3913   2.3913   2.5388   2.5388

     highest occupied level (ev):     3.3119

!    total energy              =   -8165.84621044 Ry
     estimated scf accuracy    <          3.9E-09 Ry

     The total energy is the sum of the following terms:
     one-electron contribution =    -334.11002365 Ry
     hartree contribution      =     254.69403498 Ry
     xc contribution           =    -792.71788135 Ry
     ewald contribution        =    -644.09258106 Ry
     one-center paw contrib.   =   -6649.61975936 Ry

     convergence has been achieved in   9 iterations

     Forces acting on atoms (cartesian axes, Ry/au):

     atom    1 type  1   force =    -0.00292205   -0.00468901   -0.00000000
     atom    2 type  1   force =     0.00292205    0.00468901   -0.00000000
     atom    3 type  1   force =    -0.00292205    0.00468901    0.00000000
     atom    4 type  1   force =     0.00292205   -0.00468901    0.00000000
     atom    5 type  2   force =     0.00000000    0.00000000   -0.00000000
     atom    6 type  2   force =     0.00000000    0.00000000    0.00000000
     atom    7 type  2   force =     0.00000000    0.00000000    0.00000000
     atom    8 type  2   force =     0.00000000    0.00000000    0.00000000
     atom    9 type  3   force =     0.00003888    0.00215115    0.00000000
     atom   10 type  3   force =    -0.00003888   -0.00215115    0.00000000
     atom   11 type  3   force =     0.00003888   -0.00215115   -0.00000000
     atom   12 type  3   force =    -0.00003888    0.00215115   -0.00000000
     atom   13 type  3   force =    -0.00226110   -0.00290198    0.00142088
     atom   14 type  3   force =     0.00226110    0.00290198    0.00142088
     atom   15 type  3   force =    -0.00226110    0.00290198   -0.00142088
     atom   16 type  3   force =     0.00226110   -0.00290198   -0.00142088
     atom   17 type  3   force =     0.00226110    0.00290198   -0.00142088
     atom   18 type  3   force =    -0.00226110   -0.00290198   -0.00142088
     atom   19 type  3   force =     0.00226110   -0.00290198    0.00142088
     atom   20 type  3   force =    -0.00226110    0.00290198    0.00142088

     Total force =     0.016280     Total SCF correction =     0.000048


     Computing stress (Cartesian axis) and pressure

          total   stress  (Ry/bohr**3)                   (kbar)     P=       -0.93
   0.00000824   0.00000000   0.00000000            1.21        0.00        0.00
   0.00000000  -0.00002641   0.00000000            0.00       -3.89        0.00
   0.00000000   0.00000000  -0.00000085            0.00        0.00       -0.13

     Energy error            =      8.7E-04 Ry
     Gradient error          =      4.7E-03 Ry/Bohr
     Cell gradient error     =      3.9E+00 kbar

     number of scf cycles    =   4
     number of bfgs steps    =   3

     enthalpy           old  =   -8165.8453376430 Ry
     enthalpy           new  =   -8165.8462104404 Ry

     CASE: enthalpy          _new < enthalpy          _old

     new trust radius        =       0.0334176580 bohr
     new conv_thr            =       0.0000000047 Ry

     new unit-cell volume =   6368.75795 a.u.^3 (   943.75256 Ang^3 )
     density =      5.07313 g/cm^3

CELL_PARAMETERS (angstrom)
   8.591196249   0.000000000   0.000000000
   0.000000000   8.809645893   0.000000000
   0.000000000   0.000000000  12.469414171

ATOMIC_POSITIONS (crystal)
Cs               0.5037860353        0.4579606638        0.2500000000
Cs               0.4962139647        0.5420393362        0.7500000000
Cs               0.0037860353        0.0420393362        0.7500000000
Cs               0.9962139647        0.9579606638        0.2500000000
Pb               0.5000000000        0.0000000000       -0.0000000000
Pb               0.5000000000        0.0000000000        0.5000000000
Pb              -0.0000000000        0.5000000000       -0.0000000000
Pb               0.0000000000        0.5000000000        0.5000000000
I                0.5619653381        0.0020298058        0.2500000000
I                0.4380346619        0.9979701942        0.7500000000
I                0.0619653381        0.4979701942        0.7500000000
I                0.9380346619        0.5020298058        0.2500000000
I                0.6960158641        0.3038039981        0.9646734687
I                0.3039841359        0.6961960019        0.4646734687
I                0.1960158641        0.1961960019        0.0353265313
I                0.8039841359        0.8038039981        0.5353265313
I                0.3039841359        0.6961960019        0.0353265313
I                0.6960158641        0.3038039981        0.5353265313
I                0.8039841359        0.8038039981        0.9646734687
I                0.1960158641        0.1961960019        0.4646734687



     Writing config-only to output data dir ./tmp/cspbi3_gamma_s1.save/ :
     XML data file
     NEW-OLD atomic charge density approx. for the potential
     New effective cutoffs (rho, wfc):  484.94   60.60

     total cpu time spent up to now is     5651.0 secs

     Self-consistent Calculation

     iteration #  1     ecut=    60.00 Ry     beta= 0.50
     Davidson diagonalization with overlap
     ethr =  1.00E-06,  avg # of iterations =  4.5

     Threshold (ethr) on eigenvalues was too large:
     Diagonalizing with lowered threshold

     Davidson diagonalization with overlap
     ethr =  2.93E-08,  avg # of iterations =  6.0

     total cpu time spent up to now is     5958.9 secs

     total energy              =   -8165.84727589 Ry
     estimated scf accuracy    <       0.00007248 Ry

     iteration #  2     ecut=    60.00 Ry     beta= 0.50
     Davidson diagonalization with overlap
     ethr =  4.12E-08,  avg # of iterations =  4.0

     total cpu time spent up to now is     6095.9 secs

     total energy              =   -8165.84730872 Ry
     estimated scf accuracy    <       0.00000729 Ry

     iteration #  3     ecut=    60.00 Ry     beta= 0.50
     Davidson diagonalization with overlap
     ethr =  4.14E-09,  avg # of iterations =  3.5

     total cpu time spent up to now is     6189.5 secs

     total energy              =   -8165.84731364 Ry
     estimated scf accuracy    <       0.00000288 Ry

     iteration #  4     ecut=    60.00 Ry     beta= 0.50
     Davidson diagonalization with overlap
     ethr =  1.63E-09,  avg # of iterations =  5.0

     total cpu time spent up to now is     6314.1 secs

     total energy              =   -8165.84731509 Ry
     estimated scf accuracy    <       0.00000172 Ry

     iteration #  5     ecut=    60.00 Ry     beta= 0.50
     Davidson diagonalization with overlap
     ethr =  9.76E-10,  avg # of iterations =  1.2

     total cpu time spent up to now is     6396.9 secs

     total energy              =   -8165.84731533 Ry
     estimated scf accuracy    <       0.00000239 Ry

     iteration #  6     ecut=    60.00 Ry     beta= 0.50
     Davidson diagonalization with overlap
     ethr =  9.76E-10,  avg # of iterations =  2.0

     total cpu time spent up to now is     6487.8 secs

     total energy              =   -8165.84731540 Ry
     estimated scf accuracy    <       0.00000015 Ry

     iteration #  7     ecut=    60.00 Ry     beta= 0.50
     Davidson diagonalization with overlap
     ethr =  8.42E-11,  avg # of iterations =  4.0

     total cpu time spent up to now is     6602.4 secs

     total energy              =   -8165.84731544 Ry
     estimated scf accuracy    <       0.00000001 Ry

     iteration #  8     ecut=    60.00 Ry     beta= 0.50
     Davidson diagonalization with overlap
     ethr =  7.02E-12,  avg # of iterations =  4.5

     total cpu time spent up to now is     6737.4 secs

     End of self-consistent calculation

          k = 0.0000 0.0000 0.0000 ( 50101 PWs)   bands (ev):

   -17.5210 -17.5203 -17.5197 -17.5191 -13.2378 -13.2310 -13.2261 -13.2261
   -13.2234 -13.2163 -13.2052 -13.2052 -13.1755 -13.1754 -13.1749 -13.1748
   -13.1726 -13.1724 -13.1723 -13.1720 -13.1665 -13.1664 -13.1657 -13.1656
    -8.9209  -8.7087  -8.4850  -8.4329  -8.4240  -8.3809  -8.3806  -8.3665
    -8.3651  -8.1786  -8.1592  -8.1582  -5.1399  -4.6067  -4.3674  -4.3669
    -4.3587  -4.3459  -4.3440  -4.3434  -4.3375  -4.3372  -4.3366  -4.3276
    -4.3085  -4.3070  -4.0786  -3.5836  -0.1852  -0.1208  -0.0888  -0.0116
     0.0399   0.0690   1.0151   1.2544   1.2798   1.2802   1.2866   1.4221
     1.5929   1.7713   1.7910   1.7945   1.8591   1.8645   1.9198   1.9557
     1.9642   1.9662   2.0195   2.0333   2.0670   2.1801   2.2595   2.2814
     2.2842   2.2856   2.3640   2.4382   2.5394   2.5894   2.8601   3.3318

          k = 0.0000 0.0000-0.3439 ( 50118 PWs)   bands (ev):

   -17.5206 -17.5206 -17.5194 -17.5194 -13.2306 -13.2306 -13.2261 -13.2261
   -13.2237 -13.2237 -13.2053 -13.2053 -13.1752 -13.1752 -13.1751 -13.1751
   -13.1725 -13.1725 -13.1722 -13.1722 -13.1664 -13.1664 -13.1656 -13.1656
    -8.8407  -8.8407  -8.4546  -8.4546  -8.3750  -8.3750  -8.3735  -8.3735
    -8.2791  -8.2791  -8.1585  -8.1585  -4.8854  -4.8854  -4.3634  -4.3634
    -4.3527  -4.3527  -4.3371  -4.3371  -4.3286  -4.3286  -4.3261  -4.3261
    -4.3245  -4.3245  -3.8826  -3.8826  -0.0669  -0.0669  -0.0423  -0.0423
     0.6292   0.6292   0.8695   0.8695   1.1278   1.1278   1.3628   1.3628
     1.4009   1.4009   1.7668   1.7668   1.8568   1.8568   1.9658   1.9658
     1.9865   1.9865   2.0228   2.0228   2.1903   2.1903   2.1942   2.1942
     2.2740   2.2740   2.2845   2.2845   2.4848   2.4848   2.9377   2.9377

          k = 0.0000 0.3245 0.0000 ( 50121 PWs)   bands (ev):

   -17.5206 -17.5200 -17.5200 -17.5194 -13.2361 -13.2327 -13.2216 -13.2209
   -13.2209 -13.2180 -13.2105 -13.2105 -13.1754 -13.1754 -13.1749 -13.1748
   -13.1726 -13.1724 -13.1722 -13.1721 -13.1663 -13.1662 -13.1659 -13.1658
    -8.8496  -8.6644  -8.6338  -8.4645  -8.4311  -8.4247  -8.3274  -8.3146
    -8.2664  -8.2162  -8.2113  -8.1961  -4.9105  -4.4688  -4.4478  -4.3677
    -4.3552  -4.3497  -4.3406  -4.3372  -4.3315  -4.3311  -4.3300  -4.3225
    -4.3166  -4.2554  -4.2472  -3.8684  -0.1229  -0.0097   0.1800   0.3213
     0.3568   0.4601   0.9598   1.0236   1.1774   1.1834   1.2169   1.2768
     1.3596   1.4648   1.5798   1.6029   1.8384   1.8821   1.9206   1.9252
     1.9599   1.9715   2.0198   2.0508   2.0875   2.1073   2.1370   2.1850
     2.2491   2.2502   2.3516   2.3564   2.4766   2.5189   2.6333   2.8685

          k = 0.0000 0.3245-0.3439 ( 50184 PWs)   bands (ev):

   -17.5203 -17.5203 -17.5197 -17.5197 -13.2288 -13.2288 -13.2254 -13.2254
   -13.2209 -13.2209 -13.2105 -13.2105 -13.1752 -13.1752 -13.1751 -13.1751
   -13.1724 -13.1724 -13.1723 -13.1723 -13.1662 -13.1662 -13.1658 -13.1658
    -8.7707  -8.7707  -8.5987  -8.5987  -8.3224  -8.3224  -8.3113  -8.3113
    -8.2829  -8.2829  -8.2139  -8.2139  -4.6750  -4.6750  -4.3675  -4.3675
    -4.3488  -4.3488  -4.3414  -4.3414  -4.3326  -4.3326  -4.3239  -4.3239
    -4.3123  -4.3123  -4.1411  -4.1411   0.2445   0.2445   0.3511   0.3511
     0.7128   0.7128   0.7524   0.7524   1.0555   1.0555   1.1032   1.1032
     1.4642   1.4642   1.5704   1.5704   1.6764   1.6764   1.7554   1.7554
     1.9118   1.9118   1.9507   1.9507   2.2299   2.2299   2.2417   2.2417
     2.2777   2.2777   2.2862   2.2862   2.4846   2.4846   2.5189   2.5189

          k = 0.3328 0.0000 0.0000 ( 50214 PWs)   bands (ev):

   -17.5206 -17.5201 -17.5199 -17.5194 -13.2361 -13.2327 -13.2216 -13.2209
   -13.2209 -13.2180 -13.2105 -13.2105 -13.1754 -13.1754 -13.1749 -13.1748
   -13.1726 -13.1724 -13.1722 -13.1721 -13.1663 -13.1662 -13.1659 -13.1658
    -8.8508  -8.6662  -8.6331  -8.4629  -8.4320  -8.4264  -8.3305  -8.3158
    -8.2646  -8.2144  -8.2121  -8.1930  -4.9120  -4.4648  -4.4540  -4.3592
    -4.3547  -4.3512  -4.3478  -4.3472  -4.3408  -4.3302  -4.3210  -4.3193
    -4.3165  -4.2489  -4.2331  -3.8682  -0.1263  -0.0117   0.1927   0.3352
     0.3412   0.4655   0.8742   1.0480   1.1438   1.1694   1.1886   1.2921
     1.3399   1.4904   1.5756   1.6649   1.8641   1.8662   1.9152   1.9517
     1.9795   1.9869   2.0422   2.0487   2.0972   2.1251   2.1584   2.2034
     2.2534   2.2899   2.3656   2.3905   2.4227   2.4513   2.6077   2.8156

          k = 0.3328 0.0000-0.3439 ( 50200 PWs)   bands (ev):

   -17.5203 -17.5203 -17.5197 -17.5197 -13.2288 -13.2288 -13.2254 -13.2254
   -13.2209 -13.2209 -13.2105 -13.2105 -13.1752 -13.1752 -13.1751 -13.1751
   -13.1724 -13.1724 -13.1723 -13.1723 -13.1662 -13.1662 -13.1658 -13.1658
    -8.7715  -8.7715  -8.5995  -8.5995  -8.3263  -8.3263  -8.3130  -8.3130
    -8.2776  -8.2776  -8.2128  -8.2128  -4.6795  -4.6795  -4.3710  -4.3710
    -4.3540  -4.3540  -4.3381  -4.3381  -4.3290  -4.3290  -4.3179  -4.3179
    -4.3072  -4.3072  -4.1401  -4.1401   0.2553   0.2553   0.3492   0.3492
     0.6726   0.6726   0.7605   0.7605   0.9902   0.9902   1.1191   1.1191
     1.5029   1.5029   1.5392   1.5392   1.7475   1.7475   1.7672   1.7672
     1.9683   1.9683   1.9905   1.9905   2.1858   2.1858   2.2589   2.2589
     2.2668   2.2668   2.3184   2.3184   2.4294   2.4294   2.4584   2.4584

          k = 0.3328 0.3245 0.0000 ( 50152 PWs)   bands (ev):

   -17.5204 -17.5201 -17.5198 -17.5195 -13.2363 -13.2344 -13.2242 -13.2214
   -13.2173 -13.2148 -13.2123 -13.2106 -13.1754 -13.1754 -13.1749 -13.1749
   -13.1725 -13.1725 -13.1722 -13.1721 -13.1662 -13.1661 -13.1660 -13.1659
    -8.7945  -8.6897  -8.5624  -8.4369  -8.4311  -8.4164  -8.3914  -8.3848
    -8.3154  -8.2775  -8.1855  -8.1565  -4.7710  -4.5442  -4.4012  -4.3558
    -4.3501  -4.3472  -4.3402  -4.3353  -4.3302  -4.3296  -4.3272  -4.3245
    -4.3168  -4.2866  -4.1425  -3.9507  -0.1126  -0.0635  -0.0287   0.1474
     0.3416   0.5355   0.8999   1.0550   1.0776   1.0846   1.2092   1.4657
     1.4989   1.5688   1.7046   1.8012   1.8056   1.8921   1.8921   1.9375
     1.9608   1.9727   2.0225   2.0491   2.0809   2.0972   2.1213   2.1394
     2.1428   2.2092   2.2536   2.3141   2.4917   2.5614   2.6678   2.8803

          k = 0.3328 0.3245-0.3439 ( 50168 PWs)   bands (ev):

   -17.5201 -17.5201 -17.5198 -17.5198 -13.2297 -13.2297 -13.2276 -13.2276
   -13.2166 -13.2166 -13.2118 -13.2118 -13.1752 -13.1752 -13.1751 -13.1751
   -13.1724 -13.1724 -13.1723 -13.1723 -13.1661 -13.1661 -13.1659 -13.1659
    -8.7135  -8.7135  -8.6113  -8.6113  -8.3921  -8.3921  -8.3321  -8.3321
    -8.2483  -8.2483  -8.2229  -8.2229  -4.5612  -4.5612  -4.4023  -4.4023
    -4.3469  -4.3469  -4.3354  -4.3354  -4.3262  -4.3262  -4.3166  -4.3166
    -4.2888  -4.2888  -4.2023  -4.2023   0.0384   0.0384   0.3973   0.3973
     0.6526   0.6526   0.7707   0.7707   0.9827   0.9827   1.1734   1.1734
     1.4548   1.4548   1.5604   1.5604   1.7775   1.7775   1.8934   1.8934
     1.9615   1.9615   2.0716   2.0716   2.0917   2.0917   2.1894   2.1894
     2.2291   2.2291   2.3122   2.3122   2.4044   2.4044   2.5539   2.5539

     highest occupied level (ev):     3.3318

!    total energy              =   -8165.84731544 Ry
     estimated scf accuracy    <          2.8E-09 Ry

     The total energy is the sum of the following terms:
     one-electron contribution =    -333.68783608 Ry
     hartree contribution      =     254.57012485 Ry
     xc contribution           =    -792.72610499 Ry
     ewald contribution        =    -644.38326824 Ry
     one-center paw contrib.   =   -6649.62023098 Ry

     convergence has been achieved in   8 iterations

     Forces acting on atoms (cartesian axes, Ry/au):

     atom    1 type  1   force =    -0.00274746   -0.00447032   -0.00000000
     atom    2 type  1   force =     0.00274746    0.00447032    0.00000000
     atom    3 type  1   force =    -0.00274746    0.00447032    0.00000000
     atom    4 type  1   force =     0.00274746   -0.00447032   -0.00000000
     atom    5 type  2   force =     0.00000000    0.00000000   -0.00000000
     atom    6 type  2   force =    -0.00000000    0.00000000    0.00000000
     atom    7 type  2   force =    -0.00000000   -0.00000000   -0.00000000
     atom    8 type  2   force =     0.00000000    0.00000000    0.00000000
     atom    9 type  3   force =     0.00022833    0.00207903   -0.00000000
     atom   10 type  3   force =    -0.00022833   -0.00207903   -0.00000000
     atom   11 type  3   force =     0.00022833   -0.00207903    0.00000000
     atom   12 type  3   force =    -0.00022833    0.00207903    0.00000000
     atom   13 type  3   force =    -0.00138700   -0.00182793    0.00128446
     atom   14 type  3   force =     0.00138700    0.00182793    0.00128446
     atom   15 type  3   force =    -0.00138700    0.00182793   -0.00128446
     atom   16 type  3   force =     0.00138700   -0.00182793   -0.00128446
     atom   17 type  3   force =     0.00138700    0.00182793   -0.00128446
     atom   18 type  3   force =    -0.00138700   -0.00182793   -0.00128446
     atom   19 type  3   force =     0.00138700   -0.00182793    0.00128446
     atom   20 type  3   force =    -0.00138700    0.00182793    0.00128446

     Total force =     0.013526     Total SCF correction =     0.000036


     Computing stress (Cartesian axis) and pressure

          total   stress  (Ry/bohr**3)                   (kbar)     P=       -0.73
   0.00000666   0.00000000   0.00000000            0.98        0.00        0.00
   0.00000000  -0.00002124   0.00000000            0.00       -3.12        0.00
   0.00000000   0.00000000  -0.00000033            0.00        0.00       -0.05

     Energy error            =      1.1E-03 Ry
     Gradient error          =      4.5E-03 Ry/Bohr
     Cell gradient error     =      3.1E+00 kbar

     number of scf cycles    =   5
     number of bfgs steps    =   4

     enthalpy           old  =   -8165.8462104404 Ry
     enthalpy           new  =   -8165.8473154444 Ry

     CASE: enthalpy          _new < enthalpy          _old

     new trust radius        =       0.0501938070 bohr
     new conv_thr            =       0.0000000045 Ry

     new unit-cell volume =   6354.45522 a.u.^3 (   941.63311 Ang^3 )
     density =      5.08455 g/cm^3

CELL_PARAMETERS (angstrom)
   8.599815336   0.000000000   0.000000000
   0.000000000   8.781941335   0.000000000
   0.000000000   0.000000000  12.468151342

ATOMIC_POSITIONS (crystal)
Cs               0.5029331378        0.4566469680        0.2500000000
Cs               0.4970668622        0.5433530320        0.7500000000
Cs               0.0029331378        0.0433530320        0.7500000000
Cs               0.9970668622        0.9566469680        0.2500000000
Pb               0.5000000000        0.0000000000       -0.0000000000
Pb               0.5000000000        0.0000000000        0.5000000000
Pb              -0.0000000000        0.5000000000       -0.0000000000
Pb               0.0000000000        0.5000000000        0.5000000000
I                0.5619718386        0.0026312175        0.2500000000
I                0.4380281614        0.9973687825        0.7500000000
I                0.0619718386        0.4973687825        0.7500000000
I                0.9380281614        0.5026312175        0.2500000000
I                0.6953339591        0.3029652967        0.9649569841
I                0.3046660409        0.6970347033        0.4649569841
I                0.1953339591        0.1970347033        0.0350430159
I                0.8046660409        0.8029652967        0.5350430159
I                0.3046660409        0.6970347033        0.0350430159
I                0.6953339591        0.3029652967        0.5350430159
I                0.8046660409        0.8029652967        0.9649569841
I                0.1953339591        0.1970347033        0.4649569841



     Writing config-only to output data dir ./tmp/cspbi3_gamma_s1.save/ :
     XML data file
     NEW-OLD atomic charge density approx. for the potential
     New effective cutoffs (rho, wfc):  487.97   60.97

     total cpu time spent up to now is     6871.8 secs

     Self-consistent Calculation

     iteration #  1     ecut=    60.00 Ry     beta= 0.50
     Davidson diagonalization with overlap
     ethr =  1.00E-06,  avg # of iterations =  5.5

     Threshold (ethr) on eigenvalues was too large:
     Diagonalizing with lowered threshold

     Davidson diagonalization with overlap
     ethr =  7.31E-08,  avg # of iterations =  5.0

     total cpu time spent up to now is     7210.6 secs

     total energy              =   -8165.84845200 Ry
     estimated scf accuracy    <       0.00015891 Ry

     iteration #  2     ecut=    60.00 Ry     beta= 0.50
     Davidson diagonalization with overlap
     ethr =  9.03E-08,  avg # of iterations =  4.0

     total cpu time spent up to now is     7345.3 secs

     total energy              =   -8165.84852712 Ry
     estimated scf accuracy    <       0.00001654 Ry

     iteration #  3     ecut=    60.00 Ry     beta= 0.50
     Davidson diagonalization with overlap
     ethr =  9.40E-09,  avg # of iterations =  3.1

     total cpu time spent up to now is     7437.6 secs

     total energy              =   -8165.84853853 Ry
     estimated scf accuracy    <       0.00000630 Ry

     iteration #  4     ecut=    60.00 Ry     beta= 0.50
     Davidson diagonalization with overlap
     ethr =  3.58E-09,  avg # of iterations =  5.0

     total cpu time spent up to now is     7566.9 secs

     total energy              =   -8165.84854188 Ry
     estimated scf accuracy    <       0.00000409 Ry

     iteration #  5     ecut=    60.00 Ry     beta= 0.50
     Davidson diagonalization with overlap
     ethr =  2.33E-09,  avg # of iterations =  1.1

     total cpu time spent up to now is     7646.5 secs

     total energy              =   -8165.84854245 Ry
     estimated scf accuracy    <       0.00000581 Ry

     iteration #  6     ecut=    60.00 Ry     beta= 0.50
     Davidson diagonalization with overlap
     ethr =  2.33E-09,  avg # of iterations =  2.0

     total cpu time spent up to now is     7735.9 secs

     total energy              =   -8165.84854265 Ry
     estimated scf accuracy    <       0.00000030 Ry

     iteration #  7     ecut=    60.00 Ry     beta= 0.50
     Davidson diagonalization with overlap
     ethr =  1.72E-10,  avg # of iterations =  4.0

     total cpu time spent up to now is     7863.2 secs

     total energy              =   -8165.84854275 Ry
     estimated scf accuracy    <       0.00000006 Ry

     iteration #  8     ecut=    60.00 Ry     beta= 0.50
     Davidson diagonalization with overlap
     ethr =  3.25E-11,  avg # of iterations =  3.1

     total cpu time spent up to now is     7955.6 secs

     total energy              =   -8165.84854275 Ry
     estimated scf accuracy    <          5.0E-09 Ry

     iteration #  9     ecut=    60.00 Ry     beta= 0.50
     Davidson diagonalization with overlap
     ethr =  2.85E-12,  avg # of iterations =  5.5

     total cpu time spent up to now is     8110.0 secs

     total energy              =   -8165.84854276 Ry
     estimated scf accuracy    <          6.2E-09 Ry

     iteration # 10     ecut=    60.00 Ry     beta= 0.50
     Davidson diagonalization with overlap
     ethr =  2.85E-12,  avg # of iterations =  2.9

     total cpu time spent up to now is     8208.5 secs

     End of self-consistent calculation

          k = 0.0000 0.0000 0.0000 ( 50101 PWs)   bands (ev):

   -17.5006 -17.4999 -17.4992 -17.4987 -13.2139 -13.2070 -13.2028 -13.2027
   -13.1994 -13.1921 -13.1815 -13.1815 -13.1500 -13.1498 -13.1494 -13.1493
   -13.1491 -13.1488 -13.1487 -13.1484 -13.1422 -13.1421 -13.1413 -13.1412
    -8.9092  -8.6988  -8.4657  -8.4138  -8.4049  -8.3685  -8.3659  -8.3527
    -8.3518  -8.1604  -8.1422  -8.1417  -5.1267  -4.5918  -4.3476  -4.3471
    -4.3390  -4.3246  -4.3244  -4.3225  -4.3180  -4.3171  -4.3168  -4.3079
    -4.2880  -4.2874  -4.0532  -3.5577  -0.1693  -0.1160  -0.0786  -0.0049
     0.0487   0.0857   1.0256   1.2652   1.2934   1.2964   1.2987   1.4426
     1.6072   1.7913   1.8082   1.8082   1.8802   1.8832   1.9444   1.9730
     1.9813   1.9830   2.0369   2.0446   2.0819   2.1936   2.2782   2.3009
     2.3016   2.3060   2.3832   2.4560   2.5615   2.6093   2.8898   3.3622

          k = 0.0000 0.0000-0.3439 ( 50118 PWs)   bands (ev):

   -17.5002 -17.5002 -17.4990 -17.4990 -13.2067 -13.2067 -13.2028 -13.2028
   -13.1995 -13.1995 -13.1815 -13.1815 -13.1497 -13.1497 -13.1496 -13.1496
   -13.1489 -13.1489 -13.1486 -13.1486 -13.1421 -13.1421 -13.1412 -13.1412
    -8.8293  -8.8293  -8.4353  -8.4353  -8.3610  -8.3610  -8.3603  -8.3603
    -8.2611  -8.2611  -8.1417  -8.1417  -4.8719  -4.8719  -4.3434  -4.3434
    -4.3334  -4.3334  -4.3171  -4.3171  -4.3078  -4.3078  -4.3059  -4.3059
    -4.3043  -4.3043  -3.8568  -3.8568  -0.0622  -0.0622  -0.0325  -0.0325
     0.6434   0.6434   0.8878   0.8878   1.1388   1.1388   1.3808   1.3808
     1.4138   1.4138   1.7875   1.7875   1.8759   1.8759   1.9826   1.9826
     2.0031   2.0031   2.0393   2.0393   2.2076   2.2076   2.2095   2.2095
     2.2904   2.2904   2.3059   2.3059   2.5056   2.5056   2.9679   2.9679

          k = 0.0000 0.3255 0.0000 ( 50121 PWs)   bands (ev):

   -17.5002 -17.4996 -17.4996 -17.4990 -13.2121 -13.2087 -13.1976 -13.1975
   -13.1975 -13.1939 -13.1868 -13.1868 -13.1499 -13.1499 -13.1494 -13.1493
   -13.1490 -13.1489 -13.1487 -13.1485 -13.1420 -13.1419 -13.1415 -13.1414
    -8.8371  -8.6495  -8.6228  -8.4512  -8.4121  -8.4057  -8.3141  -8.3012
    -8.2488  -8.2004  -8.1957  -8.1777  -4.8945  -4.4483  -4.4303  -4.3474
    -4.3357  -4.3293  -4.3195  -4.3173  -4.3109  -4.3104  -4.3102  -4.3025
    -4.2969  -4.2342  -4.2278  -3.8466  -0.1067   0.0080   0.1871   0.3278
     0.3746   0.4752   0.9675   1.0378   1.1839   1.1980   1.2280   1.2910
     1.3742   1.4857   1.6012   1.6205   1.8561   1.8960   1.9387   1.9402
     1.9818   1.9913   2.0367   2.0677   2.1089   2.1280   2.1551   2.2005
     2.2675   2.2723   2.3696   2.3715   2.4891   2.5389   2.6498   2.8857

          k = 0.0000 0.3255-0.3439 ( 50184 PWs)   bands (ev):

   -17.4999 -17.4999 -17.4993 -17.4993 -13.2049 -13.2049 -13.2013 -13.2013
   -13.1975 -13.1975 -13.1868 -13.1868 -13.1497 -13.1497 -13.1496 -13.1496
   -13.1488 -13.1488 -13.1487 -13.1487 -13.1419 -13.1419 -13.1415 -13.1415
    -8.7583  -8.7583  -8.5836  -8.5836  -8.3095  -8.3095  -8.2942  -8.2942
    -8.2644  -8.2644  -8.1980  -8.1980  -4.6593  -4.6593  -4.3473  -4.3473
    -4.3286  -4.3286  -4.3219  -4.3219  -4.3125  -4.3125  -4.3035  -4.3035
    -4.2917  -4.2917  -4.1187  -4.1187   0.2518   0.2518   0.3666   0.3666
     0.7291   0.7291   0.7683   0.7683   1.0621   1.0621   1.1178   1.1178
     1.4817   1.4817   1.5842   1.5842   1.6940   1.6940   1.7706   1.7706
     1.9347   1.9347   1.9747   1.9747   2.2472   2.2472   2.2595   2.2595
     2.2957   2.2957   2.3043   2.3043   2.5020   2.5020   2.5339   2.5339

          k = 0.3324 0.0000 0.0000 ( 50214 PWs)   bands (ev):

   -17.5002 -17.4996 -17.4995 -17.4990 -13.2121 -13.2087 -13.1976 -13.1975
   -13.1975 -13.1939 -13.1868 -13.1868 -13.1499 -13.1499 -13.1494 -13.1493
   -13.1490 -13.1489 -13.1487 -13.1485 -13.1420 -13.1419 -13.1415 -13.1415
    -8.8383  -8.6515  -8.6228  -8.4514  -8.4128  -8.4072  -8.3149  -8.3005
    -8.2466  -8.1999  -8.1955  -8.1757  -4.8961  -4.4431  -4.4344  -4.3392
    -4.3347  -4.3311  -4.3283  -4.3277  -4.3211  -4.3094  -4.3002  -4.2991
    -4.2966  -4.2282  -4.2172  -3.8476  -0.1095   0.0066   0.2051   0.3461
     0.3500   0.4719   0.8954   1.0634   1.1654   1.1853   1.2034   1.3057
     1.3579   1.4987   1.5946   1.6747   1.8769   1.8802   1.9272   1.9684
     1.9977   1.9983   2.0534   2.0645   2.1120   2.1439   2.1771   2.2192
     2.2712   2.3075   2.3892   2.4118   2.4459   2.4750   2.6316   2.8445

          k = 0.3324 0.0000-0.3439 ( 50200 PWs)   bands (ev):

   -17.4999 -17.4999 -17.4993 -17.4993 -13.2049 -13.2049 -13.2013 -13.2013
   -13.1975 -13.1975 -13.1868 -13.1868 -13.1497 -13.1497 -13.1496 -13.1496
   -13.1488 -13.1488 -13.1487 -13.1487 -13.1419 -13.1419 -13.1415 -13.1415
    -8.7592  -8.7592  -8.5850  -8.5850  -8.3102  -8.3102  -8.2957  -8.2957
    -8.2610  -8.2610  -8.1972  -8.1972  -4.6628  -4.6628  -4.3499  -4.3499
    -4.3346  -4.3346  -4.3183  -4.3183  -4.3084  -4.3084  -4.2979  -4.2979
    -4.2878  -4.2878  -4.1196  -4.1196   0.2673   0.2673   0.3579   0.3579
     0.6874   0.6874   0.7763   0.7763   1.0119   1.0119   1.1336   1.1336
     1.5155   1.5155   1.5564   1.5564   1.7628   1.7628   1.7888   1.7888
     1.9779   1.9779   1.9959   1.9959   2.2011   2.2011   2.2774   2.2774
     2.2852   2.2852   2.3398   2.3398   2.4545   2.4545   2.4862   2.4862

          k = 0.3324 0.3255 0.0000 ( 50152 PWs)   bands (ev):

   -17.5000 -17.4997 -17.4994 -17.4991 -13.2124 -13.2105 -13.2005 -13.1975
   -13.1937 -13.1910 -13.1886 -13.1868 -13.1499 -13.1499 -13.1494 -13.1493
   -13.1490 -13.1489 -13.1486 -13.1485 -13.1419 -13.1418 -13.1416 -13.1416
    -8.7811  -8.6746  -8.5510  -8.4182  -8.4121  -8.4033  -8.3781  -8.3708
    -8.3002  -8.2624  -8.1682  -8.1387  -4.7530  -4.5235  -4.3812  -4.3352
    -4.3302  -4.3268  -4.3204  -4.3154  -4.3096  -4.3095  -4.3069  -4.3045
    -4.2968  -4.2663  -4.1246  -3.9304  -0.0956  -0.0459  -0.0200   0.1536
     0.3544   0.5455   0.9144   1.0694   1.0916   1.0987   1.2238   1.4822
     1.5130   1.5867   1.7181   1.8200   1.8232   1.9067   1.9082   1.9497
     1.9782   1.9912   2.0400   2.0691   2.0942   2.1126   2.1387   2.1545
     2.1610   2.2292   2.2728   2.3336   2.5122   2.5820   2.6891   2.9054

          k = 0.3324 0.3255-0.3439 ( 50168 PWs)   bands (ev):

   -17.4997 -17.4997 -17.4994 -17.4994 -13.2059 -13.2059 -13.2037 -13.2037
   -13.1930 -13.1930 -13.1881 -13.1881 -13.1497 -13.1497 -13.1496 -13.1496
   -13.1488 -13.1488 -13.1487 -13.1487 -13.1418 -13.1418 -13.1416 -13.1416
    -8.7002  -8.7002  -8.5959  -8.5959  -8.3787  -8.3787  -8.3164  -8.3164
    -8.2313  -8.2313  -8.2061  -8.2061  -4.5429  -4.5429  -4.3816  -4.3816
    -4.3271  -4.3271  -4.3153  -4.3153  -4.3060  -4.3060  -4.2964  -4.2964
    -4.2691  -4.2691  -4.1817  -4.1817   0.0469   0.0469   0.4101   0.4101
     0.6662   0.6662   0.7866   0.7866   0.9972   0.9972   1.1876   1.1876
     1.4704   1.4704   1.5762   1.5762   1.7935   1.7935   1.9089   1.9089
     1.9803   1.9803   2.0864   2.0864   2.1114   2.1114   2.2065   2.2065
     2.2472   2.2472   2.3307   2.3307   2.4246   2.4246   2.5773   2.5773

     highest occupied level (ev):     3.3622

!    total energy              =   -8165.84854276 Ry
     estimated scf accuracy    <          9.8E-11 Ry

     The total energy is the sum of the following terms:
     one-electron contribution =    -333.09744021 Ry
     hartree contribution      =     254.40508485 Ry
     xc contribution           =    -792.73901855 Ry
     ewald contribution        =    -644.79637379 Ry
     one-center paw contrib.   =   -6649.62079506 Ry

     convergence has been achieved in  10 iterations

     Forces acting on atoms (cartesian axes, Ry/au):

     atom    1 type  1   force =    -0.00249887   -0.00410821    0.00000000
     atom    2 type  1   force =     0.00249887    0.00410821    0.00000000
     atom    3 type  1   force =    -0.00249887    0.00410821    0.00000000
     atom    4 type  1   force =     0.00249887   -0.00410821    0.00000000
     atom    5 type  2   force =     0.00000000    0.00000000   -0.00000000
     atom    6 type  2   force =     0.00000000    0.00000000   -0.00000000
     atom    7 type  2   force =     0.00000000    0.00000000    0.00000000
     atom    8 type  2   force =     0.00000000    0.00000000   -0.00000000
     atom    9 type  3   force =     0.00050398    0.00193507    0.00000000
     atom   10 type  3   force =    -0.00050398   -0.00193507   -0.00000000
     atom   11 type  3   force =     0.00050398   -0.00193507    0.00000000
     atom   12 type  3   force =    -0.00050398    0.00193507    0.00000000
     atom   13 type  3   force =    -0.00012384   -0.00023529    0.00105792
     atom   14 type  3   force =     0.00012384    0.00023529    0.00105792
     atom   15 type  3   force =    -0.00012384    0.00023529   -0.00105792
     atom   16 type  3   force =     0.00012384   -0.00023529   -0.00105792
     atom   17 type  3   force =     0.00012384    0.00023529   -0.00105792
     atom   18 type  3   force =    -0.00012384   -0.00023529   -0.00105792
     atom   19 type  3   force =     0.00012384   -0.00023529    0.00105792
     atom   20 type  3   force =    -0.00012384    0.00023529    0.00105792

     Total force =     0.010863     Total SCF correction =     0.000006


     Computing stress (Cartesian axis) and pressure

          total   stress  (Ry/bohr**3)                   (kbar)     P=       -0.39
   0.00000471   0.00000000   0.00000000            0.69        0.00        0.00
   0.00000000  -0.00001305   0.00000000            0.00       -1.92        0.00
   0.00000000   0.00000000   0.00000040            0.00        0.00        0.06

     Energy error            =      1.2E-03 Ry
     Gradient error          =      4.1E-03 Ry/Bohr
     Cell gradient error     =      1.9E+00 kbar

     number of scf cycles    =   6
     number of bfgs steps    =   5

     enthalpy           old  =   -8165.8473154444 Ry
     enthalpy           new  =   -8165.8485427573 Ry

     CASE: enthalpy          _new < enthalpy          _old

     new trust radius        =       0.0754433746 bohr
     new conv_thr            =       0.0000000041 Ry

     new unit-cell volume =   6333.34822 a.u.^3 (   938.50538 Ang^3 )
     density =      5.10149 g/cm^3

CELL_PARAMETERS (angstrom)
   8.613050425   0.000000000   0.000000000
   0.000000000   8.740384499   0.000000000
   0.000000000   0.000000000  12.466634825

ATOMIC_POSITIONS (crystal)
Cs               0.5015493626        0.4545108728        0.2500000000
Cs               0.4984506374        0.5454891272        0.7500000000
Cs               0.0015493626        0.0454891272        0.7500000000
Cs               0.9984506374        0.9545108728        0.2500000000
Pb               0.5000000000        0.0000000000       -0.0000000000
Pb               0.5000000000        0.0000000000        0.5000000000
Pb               0.0000000000        0.5000000000        0.0000000000
Pb               0.0000000000        0.5000000000        0.5000000000
I                0.5620276808        0.0036129175        0.2500000000
I                0.4379723192        0.9963870825        0.7500000000
I                0.0620276808        0.4963870825        0.7500000000
I                0.9379723192        0.5036129175        0.2500000000
I                0.6944016769        0.3018141670        0.9654056379
I                0.3055983231        0.6981858330        0.4654056379
I                0.1944016769        0.1981858330        0.0345943621
I                0.8055983231        0.8018141670        0.5345943621
I                0.3055983231        0.6981858330        0.0345943621
I                0.6944016769        0.3018141670        0.5345943621
I                0.8055983231        0.8018141670        0.9654056379
I                0.1944016769        0.1981858330        0.4654056379



     Writing config-only to output data dir ./tmp/cspbi3_gamma_s1.save/ :
     XML data file
     NEW-OLD atomic charge density approx. for the potential
     New effective cutoffs (rho, wfc):  492.57   61.54

     total cpu time spent up to now is     8342.1 secs

     Self-consistent Calculation

     iteration #  1     ecut=    60.00 Ry     beta= 0.50
     Davidson diagonalization with overlap
     ethr =  1.00E-06,  avg # of iterations =  6.5

     total cpu time spent up to now is     8558.7 secs

     total energy              =   -8165.84923328 Ry
     estimated scf accuracy    <       0.00036227 Ry

     iteration #  2     ecut=    60.00 Ry     beta= 0.50
     Davidson diagonalization with overlap
     ethr =  2.06E-07,  avg # of iterations =  4.5

     total cpu time spent up to now is     8694.2 secs

     total energy              =   -8165.84942915 Ry
     estimated scf accuracy    <       0.00004135 Ry

     iteration #  3     ecut=    60.00 Ry     beta= 0.50
     Davidson diagonalization with overlap
     ethr =  2.35E-08,  avg # of iterations =  4.8

     total cpu time spent up to now is     8801.1 secs

     total energy              =   -8165.84946645 Ry
     estimated scf accuracy    <       0.00002296 Ry

     iteration #  4     ecut=    60.00 Ry     beta= 0.50
     Davidson diagonalization with overlap
     ethr =  1.30E-08,  avg # of iterations =  3.5

     total cpu time spent up to now is     8901.5 secs

     total energy              =   -8165.84947305 Ry
     estimated scf accuracy    <       0.00000197 Ry

     iteration #  5     ecut=    60.00 Ry     beta= 0.50
     Davidson diagonalization with overlap
     ethr =  1.12E-09,  avg # of iterations =  4.5

     total cpu time spent up to now is     9021.2 secs

     total energy              =   -8165.84947475 Ry
     estimated scf accuracy    <       0.00000080 Ry

     iteration #  6     ecut=    60.00 Ry     beta= 0.50
     Davidson diagonalization with overlap
     ethr =  4.54E-10,  avg # of iterations =  3.8

     total cpu time spent up to now is     9115.5 secs

     total energy              =   -8165.84947502 Ry
     estimated scf accuracy    <       0.00000004 Ry

     iteration #  7     ecut=    60.00 Ry     beta= 0.50
     Davidson diagonalization with overlap
     ethr =  2.01E-11,  avg # of iterations =  4.9

     total cpu time spent up to now is     9260.4 secs

     total energy              =   -8165.84947507 Ry
     estimated scf accuracy    <       0.00000004 Ry

     iteration #  8     ecut=    60.00 Ry     beta= 0.50
     Davidson diagonalization with overlap
     ethr =  2.01E-11,  avg # of iterations =  2.6

     total cpu time spent up to now is     9353.7 secs

     End of self-consistent calculation

          k = 0.0000 0.0000 0.0000 ( 50101 PWs)   bands (ev):

   -17.4701 -17.4694 -17.4687 -17.4682 -13.1784 -13.1716 -13.1685 -13.1681
   -13.1639 -13.1562 -13.1464 -13.1463 -13.1141 -13.1139 -13.1136 -13.1135
   -13.1120 -13.1120 -13.1115 -13.1114 -13.1060 -13.1059 -13.1050 -13.1049
    -8.8925  -8.6847  -8.4379  -8.3855  -8.3763  -8.3510  -8.3445  -8.3352
    -8.3306  -8.1333  -8.1177  -8.1172  -5.1068  -4.5699  -4.3190  -4.3169
    -4.3099  -4.2953  -4.2929  -4.2913  -4.2889  -4.2873  -4.2872  -4.2786
    -4.2581  -4.2574  -4.0154  -3.5197  -0.1454  -0.1099  -0.0636   0.0029
     0.0610   0.1117   1.0409   1.2810   1.3128   1.3161   1.3217   1.4724
     1.6290   1.8219   1.8272   1.8337   1.9108   1.9120   1.9796   1.9989
     2.0067   2.0070   2.0624   2.0625   2.1038   2.2130   2.3059   2.3261
     2.3297   2.3364   2.4120   2.4820   2.5946   2.6396   2.9356   3.4084

          k = 0.0000 0.0000-0.3440 ( 50118 PWs)   bands (ev):

   -17.4698 -17.4698 -17.4684 -17.4684 -13.1712 -13.1712 -13.1687 -13.1687
   -13.1635 -13.1635 -13.1464 -13.1464 -13.1139 -13.1139 -13.1137 -13.1137
   -13.1118 -13.1118 -13.1117 -13.1117 -13.1059 -13.1059 -13.1050 -13.1050
    -8.8130  -8.8130  -8.4070  -8.4070  -8.3434  -8.3434  -8.3390  -8.3390
    -8.2345  -8.2345  -8.1172  -8.1172  -4.8517  -4.8517  -4.3136  -4.3136
    -4.3047  -4.3047  -4.2873  -4.2873  -4.2768  -4.2768  -4.2759  -4.2759
    -4.2742  -4.2742  -3.8187  -3.8187  -0.0561  -0.0561  -0.0181  -0.0181
     0.6637   0.6637   0.9144   0.9144   1.1548   1.1548   1.4077   1.4077
     1.4330   1.4330   1.8183   1.8183   1.9046   1.9046   2.0084   2.0084
     2.0270   2.0270   2.0637   2.0637   2.2274   2.2274   2.2369   2.2369
     2.3145   2.3145   2.3379   2.3379   2.5370   2.5370   3.0143   3.0143

          k = 0.0000 0.3271 0.0000 ( 50121 PWs)   bands (ev):

   -17.4697 -17.4691 -17.4691 -17.4685 -13.1766 -13.1731 -13.1632 -13.1629
   -13.1621 -13.1579 -13.1519 -13.1518 -13.1140 -13.1139 -13.1136 -13.1135
   -13.1120 -13.1120 -13.1115 -13.1115 -13.1057 -13.1057 -13.1052 -13.1052
    -8.8192  -8.6280  -8.6073  -8.4320  -8.3839  -8.3774  -8.2953  -8.2822
    -8.2242  -8.1760  -8.1733  -8.1501  -4.8706  -4.4181  -4.4047  -4.3174
    -4.3068  -4.2990  -4.2880  -4.2876  -4.2806  -4.2801  -4.2794  -4.2726
    -4.2676  -4.2024  -4.1988  -3.8145  -0.0826   0.0341   0.1967   0.3365
     0.4002   0.4963   0.9801   1.0589   1.1944   1.2195   1.2442   1.3120
     1.3955   1.5168   1.6328   1.6467   1.8826   1.9160   1.9618   1.9654
     2.0145   2.0174   2.0648   2.0926   2.1401   2.1583   2.1822   2.2228
     2.2943   2.3035   2.3937   2.3972   2.5092   2.5696   2.6749   2.9119

          k = 0.0000 0.3271-0.3440 ( 50184 PWs)   bands (ev):

   -17.4694 -17.4694 -17.4688 -17.4688 -13.1693 -13.1693 -13.1660 -13.1660
   -13.1626 -13.1626 -13.1519 -13.1519 -13.1138 -13.1138 -13.1137 -13.1137
   -13.1118 -13.1118 -13.1117 -13.1117 -13.1057 -13.1057 -13.1052 -13.1052
    -8.7405  -8.7405  -8.5618  -8.5618  -8.2911  -8.2911  -8.2692  -8.2692
    -8.2371  -8.2371  -8.1747  -8.1747  -4.6360  -4.6360  -4.3174  -4.3174
    -4.2985  -4.2985  -4.2929  -4.2929  -4.2827  -4.2827  -4.2732  -4.2732
    -4.2608  -4.2608  -4.0852  -4.0852   0.2615   0.2615   0.3888   0.3888
     0.7523   0.7523   0.7913   0.7913   1.0731   1.0731   1.1394   1.1394
     1.5075   1.5075   1.6042   1.6042   1.7205   1.7205   1.7935   1.7935
     1.9682   1.9682   2.0109   2.0109   2.2720   2.2720   2.2852   2.2852
     2.3227   2.3227   2.3307   2.3307   2.5287   2.5287   2.5577   2.5577

          k = 0.3319 0.0000 0.0000 ( 50214 PWs)   bands (ev):

   -17.4697 -17.4691 -17.4690 -17.4685 -13.1766 -13.1731 -13.1632 -13.1629
   -13.1621 -13.1579 -13.1519 -13.1518 -13.1140 -13.1139 -13.1136 -13.1135
   -13.1120 -13.1120 -13.1115 -13.1115 -13.1057 -13.1057 -13.1052 -13.1052
    -8.8204  -8.6305  -8.6082  -8.4352  -8.3844  -8.3786  -8.2925  -8.2784
    -8.2216  -8.1774  -8.1717  -8.1499  -4.8722  -4.4106  -4.4056  -4.3096
    -4.3052  -4.3011  -4.2995  -4.2987  -4.2917  -4.2785  -4.2693  -4.2692
    -4.2670  -4.1975  -4.1934  -3.8175  -0.0844   0.0337   0.2228   0.3613
     0.3617   0.4802   0.9272   1.0860   1.1973   1.2084   1.2253   1.3255
     1.3847   1.5118   1.6227   1.6892   1.8956   1.9013   1.9449   1.9926
     2.0143   2.0239   2.0708   2.0877   2.1341   2.1724   2.2041   2.2426
     2.2980   2.3333   2.4211   2.4427   2.4825   2.5149   2.6679   2.8881

          k = 0.3319 0.0000-0.3440 ( 50200 PWs)   bands (ev):

   -17.4694 -17.4694 -17.4688 -17.4688 -13.1693 -13.1693 -13.1660 -13.1660
   -13.1626 -13.1626 -13.1519 -13.1519 -13.1138 -13.1138 -13.1137 -13.1137
   -13.1118 -13.1118 -13.1117 -13.1117 -13.1057 -13.1057 -13.1052 -13.1052
    -8.7417  -8.7417  -8.5643  -8.5643  -8.2872  -8.2872  -8.2705  -8.2705
    -8.2363  -8.2363  -8.1742  -8.1742  -4.6381  -4.6381  -4.3186  -4.3186
    -4.3058  -4.3058  -4.2889  -4.2889  -4.2776  -4.2776  -4.2682  -4.2682
    -4.2588  -4.2588  -4.0893  -4.0893   0.2845   0.2845   0.3698   0.3698
     0.7084   0.7084   0.7994   0.7994   1.0441   1.0441   1.1551   1.1551
     1.5329   1.5329   1.5836   1.5836   1.7838   1.7838   1.8227   1.8227
     1.9925   1.9925   2.0046   2.0046   2.2231   2.2231   2.3041   2.3041
     2.3124   2.3124   2.3706   2.3706   2.4924   2.4924   2.5304   2.5304

          k = 0.3319 0.3271 0.0000 ( 50152 PWs)   bands (ev):

   -17.4696 -17.4692 -17.4689 -17.4686 -13.1770 -13.1750 -13.1655 -13.1624
   -13.1589 -13.1556 -13.1537 -13.1516 -13.1140 -13.1139 -13.1136 -13.1135
   -13.1120 -13.1120 -13.1115 -13.1115 -13.1056 -13.1056 -13.1054 -13.1053
    -8.7618  -8.6528  -8.5349  -8.3907  -8.3847  -8.3839  -8.3588  -8.3506
    -8.2786  -8.2408  -8.1421  -8.1123  -4.7261  -4.4927  -4.3517  -4.3046
    -4.3007  -4.2963  -4.2911  -4.2857  -4.2794  -4.2791  -4.2767  -4.2745
    -4.2669  -4.2360  -4.0980  -3.9006  -0.0701  -0.0194  -0.0076   0.1617
     0.3723   0.5588   0.9362   1.0908   1.1123   1.1202   1.2454   1.5062
     1.5338   1.6131   1.7384   1.8480   1.8491   1.9278   1.9322   1.9672
     2.0031   2.0189   2.0658   2.0984   2.1143   2.1341   2.1654   2.1770
     2.1877   2.2585   2.3016   2.3642   2.5434   2.6132   2.7216   2.9435

          k = 0.3319 0.3271-0.3440 ( 50168 PWs)   bands (ev):

   -17.4692 -17.4692 -17.4689 -17.4689 -13.1706 -13.1706 -13.1683 -13.1683
   -13.1580 -13.1580 -13.1530 -13.1530 -13.1138 -13.1138 -13.1137 -13.1137
   -13.1118 -13.1118 -13.1117 -13.1117 -13.1056 -13.1056 -13.1053 -13.1053
    -8.6810  -8.6810  -8.5737  -8.5737  -8.3593  -8.3593  -8.2938  -8.2938
    -8.2061  -8.2061  -8.1813  -8.1813  -4.5159  -4.5159  -4.3511  -4.3511
    -4.2978  -4.2978  -4.2855  -4.2855  -4.2759  -4.2759  -4.2664  -4.2664
    -4.2395  -4.2395  -4.1508  -4.1508   0.0589   0.0589   0.4282   0.4282
     0.6857   0.6857   0.8094   0.8094   1.0190   1.0190   1.2087   1.2087
     1.4932   1.4932   1.5995   1.5995   1.8171   1.8171   1.9317   1.9317
     2.0082   2.0082   2.1083   2.1083   2.1404   2.1404   2.2316   2.2316
     2.2748   2.2748   2.3580   2.3580   2.4557   2.4557   2.6136   2.6136

     highest occupied level (ev):     3.4084

!    total energy              =   -8165.84947509 Ry
     estimated scf accuracy    <          8.3E-11 Ry

     The total energy is the sum of the following terms:
     one-electron contribution =    -332.31391138 Ry
     hartree contribution      =     254.20833851 Ry
     xc contribution           =    -792.76042231 Ry
     ewald contribution        =    -645.36146339 Ry
     one-center paw contrib.   =   -6649.62201653 Ry

     convergence has been achieved in   8 iterations

     Forces acting on atoms (cartesian axes, Ry/au):

     atom    1 type  1   force =    -0.00213581   -0.00345995    0.00000000
     atom    2 type  1   force =     0.00213581    0.00345995   -0.00000000
     atom    3 type  1   force =    -0.00213581    0.00345995   -0.00000000
     atom    4 type  1   force =     0.00213581   -0.00345995   -0.00000000
     atom    5 type  2   force =    -0.00000000    0.00000000    0.00000000
     atom    6 type  2   force =     0.00000000   -0.00000000    0.00000000
     atom    7 type  2   force =     0.00000000    0.00000000   -0.00000000
     atom    8 type  2   force =     0.00000000    0.00000000    0.00000000
     atom    9 type  3   force =     0.00090058    0.00162341   -0.00000000
     atom   10 type  3   force =    -0.00090058   -0.00162341    0.00000000
     atom   11 type  3   force =     0.00090058   -0.00162341    0.00000000
     atom   12 type  3   force =    -0.00090058    0.00162341   -0.00000000
     atom   13 type  3   force =     0.00169304    0.00212358    0.00067845
     atom   14 type  3   force =    -0.00169304   -0.00212358    0.00067845
     atom   15 type  3   force =     0.00169304   -0.00212358   -0.00067845
     atom   16 type  3   force =    -0.00169304    0.00212358   -0.00067845
     atom   17 type  3   force =    -0.00169304   -0.00212358   -0.00067845
     atom   18 type  3   force =     0.00169304    0.00212358   -0.00067845
     atom   19 type  3   force =    -0.00169304    0.00212358    0.00067845
     atom   20 type  3   force =     0.00169304   -0.00212358    0.00067845

     Total force =     0.011942     Total SCF correction =     0.000027


     Computing stress (Cartesian axis) and pressure

          total   stress  (Ry/bohr**3)                   (kbar)     P=        0.21
   0.00000258   0.00000000   0.00000000            0.38        0.00        0.00
   0.00000000   0.00000026   0.00000000            0.00        0.04        0.00
   0.00000000   0.00000000   0.00000144            0.00        0.00        0.21

     Energy error            =      9.3E-04 Ry
     Gradient error          =      3.5E-03 Ry/Bohr
     Cell gradient error     =      3.8E-01 kbar

     number of scf cycles    =   7
     number of bfgs steps    =   6

     enthalpy           old  =   -8165.8485427573 Ry
     enthalpy           new  =   -8165.8494750916 Ry

     CASE: enthalpy          _new < enthalpy          _old

     new trust radius        =       0.0244931106 bohr
     new conv_thr            =       0.0000000035 Ry

     new unit-cell volume =   6327.25393 a.u.^3 (   937.60230 Ang^3 )
     density =      5.10641 g/cm^3

CELL_PARAMETERS (angstrom)
   8.618048153   0.000000000   0.000000000
   0.000000000   8.726934328   0.000000000
   0.000000000   0.000000000  12.466600404

ATOMIC_POSITIONS (crystal)
Cs               0.5009550629        0.4535964610        0.2500000000
Cs               0.4990449371        0.5464035390        0.7500000000
Cs               0.0009550629        0.0464035390        0.7500000000
Cs               0.9990449371        0.9535964610        0.2500000000
Pb               0.5000000000        0.0000000000       -0.0000000000
Pb               0.5000000000       -0.0000000000        0.5000000000
Pb               0.0000000000        0.5000000000        0.0000000000
Pb               0.0000000000        0.5000000000        0.5000000000
I                0.5621048578        0.0040341292        0.2500000000
I                0.4378951422        0.9959658708        0.7500000000
I                0.0621048578        0.4959658708        0.7500000000
I                0.9378951422        0.5040341292        0.2500000000
I                0.6942053444        0.3015687572        0.9655823482
I                0.3057946556        0.6984312428        0.4655823482
I                0.1942053444        0.1984312428        0.0344176518
I                0.8057946556        0.8015687572        0.5344176518
I                0.3057946556        0.6984312428        0.0344176518
I                0.6942053444        0.3015687572        0.5344176518
I                0.8057946556        0.8015687572        0.9655823482
I                0.1942053444        0.1984312428        0.4655823482



     Writing config-only to output data dir ./tmp/cspbi3_gamma_s1.save/ :
     XML data file
     NEW-OLD atomic charge density approx. for the potential
     New effective cutoffs (rho, wfc):  494.07   61.72

     total cpu time spent up to now is     9488.1 secs

     Self-consistent Calculation

     iteration #  1     ecut=    60.00 Ry     beta= 0.50
     Davidson diagonalization with overlap
     ethr =  1.00E-06,  avg # of iterations =  4.0

     Threshold (ethr) on eigenvalues was too large:
     Diagonalizing with lowered threshold

     Davidson diagonalization with overlap
     ethr =  1.14E-08,  avg # of iterations =  5.1

     total cpu time spent up to now is     9807.9 secs

     total energy              =   -8165.84965907 Ry
     estimated scf accuracy    <       0.00003262 Ry

     iteration #  2     ecut=    60.00 Ry     beta= 0.50
     Davidson diagonalization with overlap
     ethr =  1.85E-08,  avg # of iterations =  4.0

     total cpu time spent up to now is     9940.1 secs

     total energy              =   -8165.84967859 Ry
     estimated scf accuracy    <       0.00000379 Ry

     iteration #  3     ecut=    60.00 Ry     beta= 0.50
     Davidson diagonalization with overlap
     ethr =  2.15E-09,  avg # of iterations =  2.9

     total cpu time spent up to now is    10026.7 secs

     total energy              =   -8165.84968183 Ry
     estimated scf accuracy    <       0.00000136 Ry

     iteration #  4     ecut=    60.00 Ry     beta= 0.50
     Davidson diagonalization with overlap
     ethr =  7.76E-10,  avg # of iterations =  5.0

     total cpu time spent up to now is    10149.7 secs

     total energy              =   -8165.84968279 Ry
     estimated scf accuracy    <       0.00000077 Ry

     iteration #  5     ecut=    60.00 Ry     beta= 0.50
     Davidson diagonalization with overlap
     ethr =  4.38E-10,  avg # of iterations =  1.0

     total cpu time spent up to now is    10228.6 secs

     total energy              =   -8165.84968289 Ry
     estimated scf accuracy    <       0.00000126 Ry

     iteration #  6     ecut=    60.00 Ry     beta= 0.50
     Davidson diagonalization with overlap
     ethr =  4.38E-10,  avg # of iterations =  2.9

     total cpu time spent up to now is    10324.6 secs

     total energy              =   -8165.84968295 Ry
     estimated scf accuracy    <       0.00000002 Ry

     iteration #  7     ecut=    60.00 Ry     beta= 0.50
     Davidson diagonalization with overlap
     ethr =  1.34E-11,  avg # of iterations =  5.0

     total cpu time spent up to now is    10477.3 secs

     total energy              =   -8165.84968298 Ry
     estimated scf accuracy    <       0.00000001 Ry

     iteration #  8     ecut=    60.00 Ry     beta= 0.50
     Davidson diagonalization with overlap
     ethr =  7.52E-12,  avg # of iterations =  3.5

     total cpu time spent up to now is    10575.1 secs

     End of self-consistent calculation

          k = 0.0000 0.0000 0.0000 ( 50101 PWs)   bands (ev):

   -17.4611 -17.4604 -17.4597 -17.4591 -13.1681 -13.1614 -13.1587 -13.1580
   -13.1537 -13.1458 -13.1363 -13.1362 -13.1039 -13.1037 -13.1034 -13.1032
   -13.1012 -13.1011 -13.1006 -13.1005 -13.0955 -13.0954 -13.0945 -13.0944
    -8.8878  -8.6811  -8.4297  -8.3770  -8.3677  -8.3465  -8.3386  -8.3306
    -8.3246  -8.1256  -8.1109  -8.1102  -5.1011  -4.5638  -4.3108  -4.3079
    -4.3014  -4.2868  -4.2834  -4.2821  -4.2804  -4.2785  -4.2785  -4.2700
    -4.2494  -4.2484  -4.0043  -3.5089  -0.1378  -0.1091  -0.0592   0.0042
     0.0640   0.1198   1.0448   1.2852   1.3181   1.3209   1.3297   1.4807
     1.6359   1.8317   1.8318   1.8412   1.9187   1.9220   1.9891   2.0064
     2.0130   2.0137   2.0690   2.0693   2.1098   2.2172   2.3138   2.3321
     2.3380   2.3459   2.4205   2.4889   2.6042   2.6481   2.9494   3.4219

          k = 0.0000 0.0000-0.3440 ( 50118 PWs)   bands (ev):

   -17.4607 -17.4607 -17.4594 -17.4594 -13.1609 -13.1609 -13.1589 -13.1589
   -13.1530 -13.1530 -13.1363 -13.1363 -13.1036 -13.1036 -13.1035 -13.1035
   -13.1009 -13.1009 -13.1008 -13.1008 -13.0955 -13.0955 -13.0944 -13.0944
    -8.8085  -8.8085  -8.3987  -8.3987  -8.3388  -8.3388  -8.3331  -8.3331
    -8.2267  -8.2267  -8.1103  -8.1103  -4.8460  -4.8460  -4.3049  -4.3049
    -4.2964  -4.2964  -4.2787  -4.2787  -4.2674  -4.2674  -4.2671  -4.2671
    -4.2652  -4.2652  -3.8076  -3.8076  -0.0553  -0.0553  -0.0139  -0.0139
     0.6693   0.6693   0.9220   0.9220   1.1589   1.1589   1.4155   1.4155
     1.4387   1.4387   1.8275   1.8275   1.9131   1.9131   2.0171   2.0171
     2.0332   2.0332   2.0703   2.0703   2.2328   2.2328   2.2435   2.2435
     2.3214   2.3214   2.3472   2.3472   2.5462   2.5462   3.0284   3.0284

          k = 0.0000 0.3276 0.0000 ( 50121 PWs)   bands (ev):

   -17.4607 -17.4601 -17.4600 -17.4595 -13.1662 -13.1627 -13.1534 -13.1529
   -13.1518 -13.1475 -13.1419 -13.1418 -13.1038 -13.1037 -13.1034 -13.1033
   -13.1011 -13.1011 -13.1006 -13.1006 -13.0952 -13.0952 -13.0947 -13.0947
    -8.8142  -8.6218  -8.6032  -8.4267  -8.3755  -8.3691  -8.2904  -8.2771
    -8.2173  -8.1690  -8.1671  -8.1422  -4.8637  -4.4094  -4.3974  -4.3086
    -4.2985  -4.2901  -4.2789  -4.2786  -4.2718  -4.2710  -4.2702  -4.2638
    -4.2591  -4.1929  -4.1905  -3.8055  -0.0752   0.0421   0.1988   0.3383
     0.4076   0.5020   0.9844   1.0653   1.1979   1.2257   1.2486   1.3182
     1.4012   1.5256   1.6415   1.6542   1.8904   1.9213   1.9677   1.9730
     2.0238   2.0240   2.0734   2.0999   2.1487   2.1670   2.1901   2.2279
     2.3014   2.3115   2.3998   2.4052   2.5154   2.5788   2.6820   2.9193

          k = 0.0000 0.3276-0.3440 ( 50184 PWs)   bands (ev):

   -17.4604 -17.4604 -17.4597 -17.4597 -13.1590 -13.1590 -13.1558 -13.1558
   -13.1525 -13.1525 -13.1419 -13.1419 -13.1036 -13.1036 -13.1035 -13.1035
   -13.1009 -13.1009 -13.1008 -13.1008 -13.0952 -13.0952 -13.0947 -13.0947
    -8.7355  -8.7355  -8.5556  -8.5556  -8.2861  -8.2861  -8.2619  -8.2619
    -8.2293  -8.2293  -8.1682  -8.1682  -4.6294  -4.6294  -4.3085  -4.3085
    -4.2896  -4.2896  -4.2845  -4.2845  -4.2740  -4.2740  -4.2642  -4.2642
    -4.2516  -4.2516  -4.0755  -4.0755   0.2636   0.2636   0.3953   0.3953
     0.7586   0.7586   0.7978   0.7978   1.0768   1.0768   1.1458   1.1458
     1.5147   1.5147   1.6099   1.6099   1.7288   1.7288   1.8000   1.8000
     1.9769   1.9769   2.0212   2.0212   2.2784   2.2784   2.2923   2.2923
     2.3302   2.3302   2.3382   2.3382   2.5367   2.5367   2.5651   2.5651

          k = 0.3317 0.0000 0.0000 ( 50214 PWs)   bands (ev):

   -17.4607 -17.4601 -17.4600 -17.4595 -13.1663 -13.1627 -13.1534 -13.1529
   -13.1518 -13.1475 -13.1419 -13.1418 -13.1038 -13.1037 -13.1034 -13.1033
   -13.1011 -13.1011 -13.1006 -13.1006 -13.0952 -13.0952 -13.0947 -13.0947
    -8.8154  -8.6245  -8.6044  -8.4310  -8.3759  -8.3701  -8.2862  -8.2722
    -8.2149  -8.1707  -8.1651  -8.1425  -4.8652  -4.4008  -4.3971  -4.3009
    -4.2966  -4.2923  -4.2912  -4.2901  -4.2830  -4.2693  -4.2603  -4.2601
    -4.2584  -4.1887  -4.1867  -3.8091  -0.0766   0.0420   0.2278   0.3646
     0.3652   0.4820   0.9362   1.0924   1.2058   1.2149   1.2317   1.3307
     1.3927   1.5164   1.6308   1.6934   1.9009   1.9076   1.9498   1.9992
     2.0181   2.0310   2.0761   2.0939   2.1408   2.1812   2.2112   2.2492
     2.3059   2.3407   2.4291   2.4514   2.4938   2.5272   2.6783   2.9004

          k = 0.3317 0.0000-0.3440 ( 50200 PWs)   bands (ev):

   -17.4604 -17.4604 -17.4597 -17.4597 -13.1590 -13.1590 -13.1558 -13.1558
   -13.1525 -13.1525 -13.1419 -13.1419 -13.1036 -13.1036 -13.1035 -13.1035
   -13.1009 -13.1009 -13.1008 -13.1008 -13.0952 -13.0952 -13.0947 -13.0947
    -8.7369  -8.7369  -8.5585  -8.5585  -8.2808  -8.2808  -8.2634  -8.2634
    -8.2292  -8.2292  -8.1676  -8.1676  -4.6310  -4.6310  -4.3094  -4.3094
    -4.2975  -4.2975  -4.2804  -4.2804  -4.2684  -4.2684  -4.2594  -4.2594
    -4.2503  -4.2503  -4.0808  -4.0808   0.2893   0.2893   0.3727   0.3727
     0.7141   0.7141   0.8062   0.8062   1.0530   1.0530   1.1612   1.1612
     1.5377   1.5377   1.5923   1.5923   1.7893   1.7893   1.8330   1.8330
     1.9967   1.9967   2.0071   2.0071   2.2289   2.2289   2.3118   2.3118
     2.3199   2.3199   2.3793   2.3793   2.5037   2.5037   2.5438   2.5438

          k = 0.3317 0.3276 0.0000 ( 50152 PWs)   bands (ev):

   -17.4605 -17.4602 -17.4599 -17.4596 -13.1667 -13.1647 -13.1555 -13.1522
   -13.1489 -13.1454 -13.1436 -13.1414 -13.1038 -13.1037 -13.1034 -13.1033
   -13.1011 -13.1011 -13.1006 -13.1006 -13.0951 -13.0951 -13.0949 -13.0948
    -8.7564  -8.6466  -8.5306  -8.3825  -8.3797  -8.3754  -8.3536  -8.3452
    -8.2727  -8.2349  -8.1346  -8.1047  -4.7182  -4.4836  -4.3430  -4.2957
    -4.2920  -4.2873  -4.2826  -4.2770  -4.2705  -4.2702  -4.2677  -4.2657
    -4.2582  -4.2272  -4.0906  -3.8922  -0.0621  -0.0111  -0.0042   0.1630
     0.3773   0.5619   0.9426   1.0972   1.1184   1.1263   1.2517   1.5132
     1.5396   1.6206   1.7444   1.8565   1.8566   1.9334   1.9389   1.9716
     2.0098   2.0272   2.0732   2.1062   2.1204   2.1396   2.1732   2.1832
     2.1953   2.2667   2.3099   2.3732   2.5525   2.6221   2.7307   2.9545

          k = 0.3317 0.3276-0.3440 ( 50168 PWs)   bands (ev):

   -17.4602 -17.4602 -17.4599 -17.4599 -13.1604 -13.1604 -13.1580 -13.1580
   -13.1479 -13.1479 -13.1429 -13.1429 -13.1036 -13.1036 -13.1035 -13.1035
   -13.1009 -13.1009 -13.1008 -13.1008 -13.0951 -13.0951 -13.0948 -13.0948
    -8.6756  -8.6756  -8.5674  -8.5674  -8.3541  -8.3541  -8.2875  -8.2875
    -8.1989  -8.1989  -8.1742  -8.1742  -4.5081  -4.5081  -4.3421  -4.3421
    -4.2892  -4.2892  -4.2767  -4.2767  -4.2670  -4.2670  -4.2575  -4.2575
    -4.2309  -4.2309  -4.1419  -4.1419   0.0620   0.0620   0.4333   0.4333
     0.6908   0.6908   0.8157   0.8157   1.0254   1.0254   1.2148   1.2148
     1.4999   1.4999   1.6065   1.6065   1.8238   1.8238   1.9382   1.9382
     2.0163   2.0163   2.1144   2.1144   2.1485   2.1485   2.2388   2.2388
     2.2827   2.2827   2.3656   2.3656   2.4650   2.4650   2.6244   2.6244

     highest occupied level (ev):     3.4219

!    total energy              =   -8165.84968298 Ry
     estimated scf accuracy    <          1.3E-10 Ry

     The total energy is the sum of the following terms:
     one-electron contribution =    -332.13103074 Ry
     hartree contribution      =     254.17357172 Ry
     xc contribution           =    -792.76711616 Ry
     ewald contribution        =    -645.50260116 Ry
     one-center paw contrib.   =   -6649.62250664 Ry

     convergence has been achieved in   8 iterations

     Forces acting on atoms (cartesian axes, Ry/au):

     atom    1 type  1   force =    -0.00201212   -0.00319853   -0.00000000
     atom    2 type  1   force =     0.00201212    0.00319853   -0.00000000
     atom    3 type  1   force =    -0.00201212    0.00319853    0.00000000
     atom    4 type  1   force =     0.00201212   -0.00319853   -0.00000000
     atom    5 type  2   force =     0.00000000    0.00000000   -0.00000000
     atom    6 type  2   force =     0.00000000    0.00000000    0.00000000
     atom    7 type  2   force =     0.00000000   -0.00000000    0.00000000
     atom    8 type  2   force =     0.00000000    0.00000000    0.00000000
     atom    9 type  3   force =     0.00103162    0.00146488    0.00000000
     atom   10 type  3   force =    -0.00103162   -0.00146488    0.00000000
     atom   11 type  3   force =     0.00103162   -0.00146488    0.00000000
     atom   12 type  3   force =    -0.00103162    0.00146488    0.00000000
     atom   13 type  3   force =     0.00211951    0.00273593    0.00052949
     atom   14 type  3   force =    -0.00211951   -0.00273593    0.00052949
     atom   15 type  3   force =     0.00211951   -0.00273593   -0.00052949
     atom   16 type  3   force =    -0.00211951    0.00273593   -0.00052949
     atom   17 type  3   force =    -0.00211951   -0.00273593   -0.00052949
     atom   18 type  3   force =     0.00211951    0.00273593   -0.00052949
     atom   19 type  3   force =    -0.00211951    0.00273593    0.00052949
     atom   20 type  3   force =     0.00211951   -0.00273593    0.00052949

     Total force =     0.012962     Total SCF correction =     0.000023


     Computing stress (Cartesian axis) and pressure

          total   stress  (Ry/bohr**3)                   (kbar)     P=        0.40
   0.00000206   0.00000000   0.00000000            0.30        0.00        0.00
   0.00000000   0.00000453   0.00000000            0.00        0.67        0.00
   0.00000000   0.00000000   0.00000157            0.00        0.00        0.23

     Energy error            =      2.1E-04 Ry
     Gradient error          =      3.2E-03 Ry/Bohr
     Cell gradient error     =      6.7E-01 kbar

     number of scf cycles    =   8
     number of bfgs steps    =   7

     enthalpy           old  =   -8165.8494750916 Ry
     enthalpy           new  =   -8165.8496829795 Ry

     CASE: enthalpy          _new < enthalpy          _old

     new trust radius        =       0.0269709602 bohr
     new conv_thr            =       0.0000000021 Ry

     new unit-cell volume =   6321.69308 a.u.^3 (   936.77827 Ang^3 )
     density =      5.11090 g/cm^3

CELL_PARAMETERS (angstrom)
   8.624707785   0.000000000   0.000000000
   0.000000000   8.712139140   0.000000000
   0.000000000   0.000000000  12.467162309

ATOMIC_POSITIONS (crystal)
Cs               0.5000761463        0.4522515544        0.2500000000
Cs               0.4999238537        0.5477484456        0.7500000000
Cs               0.0000761463        0.0477484456        0.7500000000
Cs               0.9999238537        0.9522515544        0.2500000000
Pb               0.5000000000        0.0000000000       -0.0000000000
Pb               0.5000000000       -0.0000000000        0.5000000000
Pb               0.0000000000        0.5000000000        0.0000000000
Pb               0.0000000000        0.5000000000        0.5000000000
I                0.5622812834        0.0046514871        0.2500000000
I                0.4377187166        0.9953485129        0.7500000000
I                0.0622812834        0.4953485129        0.7500000000
I                0.9377187166        0.5046514871        0.2500000000
I                0.6941359677        0.3014802564        0.9658234550
I                0.3058640323        0.6985197436        0.4658234550
I                0.1941359677        0.1985197436        0.0341765450
I                0.8058640323        0.8014802564        0.5341765450
I                0.3058640323        0.6985197436        0.0341765450
I                0.6941359677        0.3014802564        0.5341765450
I                0.8058640323        0.8014802564        0.9658234550
I                0.1941359677        0.1985197436        0.4658234550



     Writing config-only to output data dir ./tmp/cspbi3_gamma_s1.save/ :
     XML data file
     NEW-OLD atomic charge density approx. for the potential
     New effective cutoffs (rho, wfc):  495.73   61.92

     total cpu time spent up to now is    10706.5 secs

     Self-consistent Calculation

     iteration #  1     ecut=    60.00 Ry     beta= 0.50
     Davidson diagonalization with overlap
     ethr =  1.00E-06,  avg # of iterations =  5.0

     Threshold (ethr) on eigenvalues was too large:
     Diagonalizing with lowered threshold

     Davidson diagonalization with overlap
     ethr =  1.22E-08,  avg # of iterations =  6.0

     total cpu time spent up to now is    11023.7 secs

     total energy              =   -8165.84999786 Ry
     estimated scf accuracy    <       0.00003121 Ry

     iteration #  2     ecut=    60.00 Ry     beta= 0.50
     Davidson diagonalization with overlap
     ethr =  1.77E-08,  avg # of iterations =  4.0

     total cpu time spent up to now is    11161.4 secs

     total energy              =   -8165.85002410 Ry
     estimated scf accuracy    <       0.00000298 Ry

     iteration #  3     ecut=    60.00 Ry     beta= 0.50
     Davidson diagonalization with overlap
     ethr =  1.70E-09,  avg # of iterations =  5.1

     total cpu time spent up to now is    11265.4 secs

     total energy              =   -8165.85002935 Ry
     estimated scf accuracy    <       0.00000161 Ry

     iteration #  4     ecut=    60.00 Ry     beta= 0.50
     Davidson diagonalization with overlap
     ethr =  9.15E-10,  avg # of iterations =  4.5

     total cpu time spent up to now is    11376.4 secs

     total energy              =   -8165.85003066 Ry
     estimated scf accuracy    <       0.00000018 Ry

     iteration #  5     ecut=    60.00 Ry     beta= 0.50
     Davidson diagonalization with overlap
     ethr =  1.05E-10,  avg # of iterations =  4.4

     total cpu time spent up to now is    11494.7 secs

     total energy              =   -8165.85003094 Ry
     estimated scf accuracy    <       0.00000004 Ry

     iteration #  6     ecut=    60.00 Ry     beta= 0.50
     Davidson diagonalization with overlap
     ethr =  2.15E-11,  avg # of iterations =  4.0

     total cpu time spent up to now is    11613.1 secs

     total energy              =   -8165.85003101 Ry
     estimated scf accuracy    <          2.6E-09 Ry

     iteration #  7     ecut=    60.00 Ry     beta= 0.50
     Davidson diagonalization with overlap
     ethr =  1.47E-12,  avg # of iterations =  5.5

     total cpu time spent up to now is    11756.6 secs

     End of self-consistent calculation

          k = 0.0000 0.0000 0.0000 ( 50101 PWs)   bands (ev):

   -17.4526 -17.4519 -17.4512 -17.4506 -13.1589 -13.1523 -13.1501 -13.1491
   -13.1445 -13.1365 -13.1274 -13.1273 -13.0947 -13.0945 -13.0943 -13.0941
   -13.0915 -13.0914 -13.0910 -13.0909 -13.0862 -13.0862 -13.0852 -13.0851
    -8.8838  -8.6785  -8.4219  -8.3688  -8.3592  -8.3433  -8.3337  -8.3273
    -8.3192  -8.1186  -8.1049  -8.1042  -5.0961  -4.5589  -4.3033  -4.2995
    -4.2935  -4.2788  -4.2741  -4.2733  -4.2726  -4.2704  -4.2701  -4.2620
    -4.2411  -4.2398  -3.9938  -3.4992  -0.1296  -0.1098  -0.0549   0.0040
     0.0660   0.1280   1.0474   1.2883   1.3224   1.3247   1.3381   1.4875
     1.6432   1.8343   1.8422   1.8485   1.9258   1.9326   1.9971   2.0132
     2.0171   2.0195   2.0736   2.0783   2.1146   2.2187   2.3210   2.3360
     2.3456   2.3558   2.4282   2.4943   2.6131   2.6551   2.9622   3.4342

          k = 0.0000 0.0000-0.3440 ( 50118 PWs)   bands (ev):

   -17.4522 -17.4522 -17.4509 -17.4509 -13.1517 -13.1517 -13.1503 -13.1503
   -13.1437 -13.1437 -13.1274 -13.1274 -13.0945 -13.0945 -13.0943 -13.0943
   -13.0913 -13.0913 -13.0912 -13.0912 -13.0862 -13.0862 -13.0851 -13.0851
    -8.8047  -8.8047  -8.3906  -8.3906  -8.3354  -8.3354  -8.3278  -8.3278
    -8.2197  -8.2197  -8.1043  -8.1043  -4.8413  -4.8413  -4.2968  -4.2968
    -4.2887  -4.2887  -4.2706  -4.2706  -4.2589  -4.2589  -4.2584  -4.2584
    -4.2566  -4.2566  -3.7973  -3.7973  -0.0559  -0.0559  -0.0099  -0.0099
     0.6739   0.6739   0.9291   0.9291   1.1620   1.1620   1.4229   1.4229
     1.4439   1.4439   1.8365   1.8365   1.9213   1.9213   2.0269   2.0269
     2.0379   2.0379   2.0757   2.0757   2.2373   2.2373   2.2476   2.2476
     2.3276   2.3276   2.3560   2.3560   2.5546   2.5546   3.0416   3.0416

          k = 0.0000 0.3281 0.0000 ( 50121 PWs)   bands (ev):

   -17.4522 -17.4516 -17.4515 -17.4509 -13.1570 -13.1535 -13.1447 -13.1442
   -13.1426 -13.1382 -13.1331 -13.1329 -13.0947 -13.0946 -13.0943 -13.0942
   -13.0915 -13.0915 -13.0910 -13.0909 -13.0860 -13.0859 -13.0854 -13.0854
    -8.8097  -8.6161  -8.6000  -8.4222  -8.3675  -8.3611  -8.2866  -8.2732
    -8.2109  -8.1631  -8.1619  -8.1350  -4.8575  -4.4014  -4.3907  -4.3003
    -4.2910  -4.2817  -4.2708  -4.2696  -4.2635  -4.2623  -4.2614  -4.2554
    -4.2510  -4.1839  -4.1831  -3.7977  -0.0677   0.0501   0.1997   0.3390
     0.4149   0.5069   0.9894   1.0716   1.2015   1.2313   1.2524   1.3240
     1.4056   1.5335   1.6487   1.6608   1.8980   1.9251   1.9724   1.9798
     2.0285   2.0328   2.0811   2.1066   2.1559   2.1748   2.1976   2.2301
     2.3067   2.3174   2.4048   2.4123   2.5213   2.5877   2.6878   2.9255

          k = 0.0000 0.3281-0.3440 ( 50184 PWs)   bands (ev):

   -17.4519 -17.4519 -17.4512 -17.4512 -13.1498 -13.1498 -13.1468 -13.1468
   -13.1435 -13.1435 -13.1330 -13.1330 -13.0945 -13.0945 -13.0944 -13.0944
   -13.0913 -13.0913 -13.0912 -13.0912 -13.0859 -13.0859 -13.0854 -13.0854
    -8.7313  -8.7313  -8.5499  -8.5499  -8.2822  -8.2822  -8.2552  -8.2552
    -8.2222  -8.2222  -8.1627  -8.1627  -4.6237  -4.6237  -4.3001  -4.3001
    -4.2813  -4.2813  -4.2767  -4.2767  -4.2659  -4.2659  -4.2557  -4.2557
    -4.2428  -4.2428  -4.0665  -4.0665   0.2646   0.2646   0.4014   0.4014
     0.7640   0.7640   0.8036   0.8036   1.0808   1.0808   1.1520   1.1520
     1.5208   1.5208   1.6152   1.6152   1.7373   1.7373   1.8057   1.8057
     1.9830   1.9830   2.0301   2.0301   2.2828   2.2828   2.2985   2.2985
     2.3366   2.3366   2.3446   2.3446   2.5440   2.5440   2.5721   2.5721

          k = 0.3315 0.0000 0.0000 ( 50214 PWs)   bands (ev):

   -17.4522 -17.4516 -17.4515 -17.4509 -13.1570 -13.1535 -13.1447 -13.1442
   -13.1426 -13.1382 -13.1331 -13.1329 -13.0947 -13.0946 -13.0943 -13.0942
   -13.0915 -13.0915 -13.0910 -13.0909 -13.0860 -13.0859 -13.0854 -13.0854
    -8.8109  -8.6191  -8.6017  -8.4280  -8.3679  -8.3619  -8.2807  -8.2666
    -8.2092  -8.1648  -8.1592  -8.1359  -4.8589  -4.3911  -4.3893  -4.2929
    -4.2887  -4.2841  -4.2837  -4.2822  -4.2749  -4.2606  -4.2521  -4.2514
    -4.2505  -4.1810  -4.1808  -3.8021  -0.0687   0.0503   0.2324   0.3666
     0.3685   0.4830   0.9440   1.0982   1.2125   1.2207   1.2379   1.3346
     1.4003   1.5218   1.6383   1.6972   1.9055   1.9135   1.9539   2.0048
     2.0202   2.0368   2.0811   2.0986   2.1472   2.1901   2.2166   2.2551
     2.3135   2.3477   2.4352   2.4592   2.5047   2.5384   2.6871   2.9107

          k = 0.3315 0.0000-0.3440 ( 50200 PWs)   bands (ev):

   -17.4519 -17.4519 -17.4512 -17.4512 -13.1498 -13.1498 -13.1468 -13.1468
   -13.1435 -13.1435 -13.1330 -13.1330 -13.0945 -13.0945 -13.0944 -13.0944
   -13.0913 -13.0913 -13.0912 -13.0912 -13.0859 -13.0859 -13.0854 -13.0854
    -8.7327  -8.7327  -8.5533  -8.5533  -8.2750  -8.2750  -8.2571  -8.2571
    -8.2228  -8.2228  -8.1618  -8.1618  -4.6247  -4.6247  -4.3006  -4.3006
    -4.2899  -4.2899  -4.2724  -4.2724  -4.2596  -4.2596  -4.2512  -4.2512
    -4.2423  -4.2423  -4.0733  -4.0733   0.2938   0.2938   0.3748   0.3748
     0.7189   0.7189   0.8125   0.8125   1.0604   1.0604   1.1666   1.1666
     1.5418   1.5418   1.6016   1.6016   1.7934   1.7934   1.8430   1.8430
     2.0005   2.0005   2.0093   2.0093   2.2334   2.2334   2.3188   2.3188
     2.3257   2.3257   2.3869   2.3869   2.5143   2.5143   2.5560   2.5560

          k = 0.3315 0.3281 0.0000 ( 50152 PWs)   bands (ev):

   -17.4520 -17.4517 -17.4514 -17.4511 -13.1575 -13.1555 -13.1466 -13.1432
   -13.1401 -13.1363 -13.1348 -13.1324 -13.0947 -13.0946 -13.0943 -13.0942
   -13.0915 -13.0915 -13.0910 -13.0909 -13.0858 -13.0858 -13.0856 -13.0855
    -8.7515  -8.6409  -8.5273  -8.3757  -8.3745  -8.3674  -8.3493  -8.3408
    -8.2678  -8.2298  -8.1280  -8.0980  -4.7110  -4.4750  -4.3348  -4.2874
    -4.2840  -4.2787  -4.2748  -4.2688  -4.2621  -4.2618  -4.2593  -4.2572
    -4.2500  -4.2189  -4.0844  -3.8851  -0.0539  -0.0024  -0.0016   0.1626
     0.3820   0.5641   0.9484   1.1034   1.1241   1.1316   1.2574   1.5196
     1.5447   1.6274   1.7501   1.8633   1.8649   1.9374   1.9447   1.9746
     2.0155   2.0349   2.0797   2.1126   2.1261   2.1437   2.1801   2.1885
     2.2018   2.2738   2.3172   2.3812   2.5607   2.6298   2.7384   2.9640

          k = 0.3315 0.3281-0.3440 ( 50168 PWs)   bands (ev):

   -17.4517 -17.4517 -17.4514 -17.4514 -13.1513 -13.1513 -13.1489 -13.1489
   -13.1390 -13.1390 -13.1340 -13.1340 -13.0945 -13.0945 -13.0944 -13.0944
   -13.0912 -13.0912 -13.0912 -13.0912 -13.0858 -13.0858 -13.0855 -13.0855
    -8.6709  -8.6709  -8.5616  -8.5616  -8.3497  -8.3497  -8.2820  -8.2820
    -8.1924  -8.1924  -8.1679  -8.1679  -4.5011  -4.5011  -4.3336  -4.3336
    -4.2814  -4.2814  -4.2686  -4.2686  -4.2586  -4.2586  -4.2492  -4.2492
    -4.2229  -4.2229  -4.1339  -4.1339   0.0645   0.0645   0.4381   0.4381
     0.6949   0.6949   0.8214   0.8214   1.0309   1.0309   1.2202   1.2202
     1.5062   1.5062   1.6135   1.6135   1.8296   1.8296   1.9437   1.9437
     2.0237   2.0237   2.1197   2.1197   2.1554   2.1554   2.2451   2.2451
     2.2893   2.2893   2.3717   2.3717   2.4736   2.4736   2.6342   2.6342

     highest occupied level (ev):     3.4342

!    total energy              =   -8165.85003103 Ry
     estimated scf accuracy    <          9.5E-11 Ry

     The total energy is the sum of the following terms:
     one-electron contribution =    -332.02101056 Ry
     hartree contribution      =     254.16912910 Ry
     xc contribution           =    -792.77310087 Ry
     ewald contribution        =    -645.60226513 Ry
     one-center paw contrib.   =   -6649.62278357 Ry

     convergence has been achieved in   7 iterations

     Forces acting on atoms (cartesian axes, Ry/au):

     atom    1 type  1   force =    -0.00184226   -0.00280327    0.00000000
     atom    2 type  1   force =     0.00184226    0.00280327    0.00000000
     atom    3 type  1   force =    -0.00184226    0.00280327    0.00000000
     atom    4 type  1   force =     0.00184226   -0.00280327    0.00000000
     atom    5 type  2   force =     0.00000000    0.00000000   -0.00000000
     atom    6 type  2   force =     0.00000000    0.00000000    0.00000000
     atom    7 type  2   force =     0.00000000    0.00000000    0.00000000
     atom    8 type  2   force =     0.00000000   -0.00000000    0.00000000
     atom    9 type  3   force =     0.00118231    0.00121386    0.00000000
     atom   10 type  3   force =    -0.00118231   -0.00121386    0.00000000
     atom   11 type  3   force =     0.00118231   -0.00121386    0.00000000
     atom   12 type  3   force =    -0.00118231    0.00121386    0.00000000
     atom   13 type  3   force =     0.00234166    0.00316091    0.00033481
     atom   14 type  3   force =    -0.00234166   -0.00316091    0.00033481
     atom   15 type  3   force =     0.00234166   -0.00316091   -0.00033481
     atom   16 type  3   force =    -0.00234166    0.00316091   -0.00033481
     atom   17 type  3   force =    -0.00234166   -0.00316091   -0.00033481
     atom   18 type  3   force =     0.00234166    0.00316091   -0.00033481
     atom   19 type  3   force =    -0.00234166    0.00316091    0.00033481
     atom   20 type  3   force =     0.00234166   -0.00316091    0.00033481

     Total force =     0.013461     Total SCF correction =     0.000046


     Computing stress (Cartesian axis) and pressure

          total   stress  (Ry/bohr**3)                   (kbar)     P=        0.56
   0.00000143   0.00000000   0.00000000            0.21        0.00        0.00
   0.00000000   0.00000878   0.00000000            0.00        1.29        0.00
   0.00000000   0.00000000   0.00000129            0.00        0.00        0.19

     Energy error            =      3.5E-04 Ry
     Gradient error          =      3.2E-03 Ry/Bohr
     Cell gradient error     =      1.3E+00 kbar

     number of scf cycles    =   9
     number of bfgs steps    =   8

     enthalpy           old  =   -8165.8496829795 Ry
     enthalpy           new  =   -8165.8500310334 Ry

     CASE: enthalpy          _new < enthalpy          _old

     new trust radius        =       0.0405073323 bohr
     new conv_thr            =       0.0000000032 Ry

     new unit-cell volume =   6316.84860 a.u.^3 (   936.06039 Ang^3 )
     density =      5.11482 g/cm^3

CELL_PARAMETERS (angstrom)
   8.634155120   0.000000000   0.000000000
   0.000000000   8.694993947   0.000000000
   0.000000000   0.000000000  12.468515113

ATOMIC_POSITIONS (crystal)
Cs               0.4987195320        0.4501899924        0.2500000000
Cs               0.5012804680        0.5498100076        0.7500000000
Cs              -0.0012804680        0.0498100076        0.7500000000
Cs               1.0012804680        0.9501899924        0.2500000000
Pb               0.5000000000        0.0000000000       -0.0000000000
Pb               0.5000000000       -0.0000000000        0.5000000000
Pb               0.0000000000        0.5000000000        0.0000000000
Pb               0.0000000000        0.5000000000        0.5000000000
I                0.5626272929        0.0055922510        0.2500000000
I                0.4373727071        0.9944077490        0.7500000000
I                0.0626272929        0.4944077490        0.7500000000
I                0.9373727071        0.5055922510        0.2500000000
I                0.6942576942        0.3016354324        0.9661707043
I                0.3057423058        0.6983645676        0.4661707043
I                0.1942576942        0.1983645676        0.0338292957
I                0.8057423058        0.8016354324        0.5338292957
I                0.3057423058        0.6983645676        0.0338292957
I                0.6942576942        0.3016354324        0.5338292957
I                0.8057423058        0.8016354324        0.9661707043
I                0.1942576942        0.1983645676        0.4661707043



     Writing config-only to output data dir ./tmp/cspbi3_gamma_s1.save/ :
     XML data file
     NEW-OLD atomic charge density approx. for the potential
     New effective cutoffs (rho, wfc):  497.66   62.16

     total cpu time spent up to now is    11888.9 secs

     Self-consistent Calculation

     iteration #  1     ecut=    60.00 Ry     beta= 0.50
     Davidson diagonalization with overlap
     ethr =  1.00E-06,  avg # of iterations =  6.6

     Threshold (ethr) on eigenvalues was too large:
     Diagonalizing with lowered threshold

     Davidson diagonalization with overlap
     ethr =  1.75E-08,  avg # of iterations =  5.6

     total cpu time spent up to now is    12219.3 secs

     total energy              =   -8165.85054599 Ry
     estimated scf accuracy    <       0.00004164 Ry

     iteration #  2     ecut=    60.00 Ry     beta= 0.50
     Davidson diagonalization with overlap
     ethr =  2.37E-08,  avg # of iterations =  3.6

     total cpu time spent up to now is    12334.3 secs

     total energy              =   -8165.85059127 Ry
     estimated scf accuracy    <       0.00000226 Ry

     iteration #  3     ecut=    60.00 Ry     beta= 0.50
     Davidson diagonalization with overlap
     ethr =  1.28E-09,  avg # of iterations =  6.0

     total cpu time spent up to now is    12483.5 secs

     total energy              =   -8165.85060297 Ry
     estimated scf accuracy    <       0.00000516 Ry

     iteration #  4     ecut=    60.00 Ry     beta= 0.50
     Davidson diagonalization with overlap
     ethr =  1.28E-09,  avg # of iterations =  1.0

     total cpu time spent up to now is    12561.8 secs

     total energy              =   -8165.85060539 Ry
     estimated scf accuracy    <       0.00000353 Ry

     iteration #  5     ecut=    60.00 Ry     beta= 0.50
     Davidson diagonalization with overlap
     ethr =  1.28E-09,  avg # of iterations =  4.0

     total cpu time spent up to now is    12666.1 secs

     total energy              =   -8165.85060625 Ry
     estimated scf accuracy    <       0.00000031 Ry

     iteration #  6     ecut=    60.00 Ry     beta= 0.50
     Davidson diagonalization with overlap
     ethr =  1.76E-10,  avg # of iterations =  3.9

     total cpu time spent up to now is    12769.0 secs

     total energy              =   -8165.85060641 Ry
     estimated scf accuracy    <       0.00000003 Ry

     iteration #  7     ecut=    60.00 Ry     beta= 0.50
     Davidson diagonalization with overlap
     ethr =  1.57E-11,  avg # of iterations =  5.8

     total cpu time spent up to now is    12935.1 secs

     total energy              =   -8165.85060645 Ry
     estimated scf accuracy    <       0.00000003 Ry

     iteration #  8     ecut=    60.00 Ry     beta= 0.50
     Davidson diagonalization with overlap
     ethr =  1.57E-11,  avg # of iterations =  3.6

     total cpu time spent up to now is    13042.9 secs

     End of self-consistent calculation

          k = 0.0000 0.0000 0.0000 ( 50101 PWs)   bands (ev):

   -17.4445 -17.4439 -17.4431 -17.4426 -13.1512 -13.1448 -13.1431 -13.1418
   -13.1369 -13.1287 -13.1202 -13.1201 -13.0872 -13.0869 -13.0868 -13.0865
   -13.0837 -13.0835 -13.0832 -13.0830 -13.0786 -13.0786 -13.0775 -13.0775
    -8.8805  -8.6772  -8.4146  -8.3613  -8.3508  -8.3417  -8.3300  -8.3258
    -8.3146  -8.1129  -8.1002  -8.0996  -5.0922  -4.5555  -4.2968  -4.2917
    -4.2864  -4.2715  -4.2655  -4.2650  -4.2649  -4.2629  -4.2624  -4.2546
    -4.2333  -4.2318  -3.9844  -3.4913  -0.1204  -0.1131  -0.0507   0.0012
     0.0666   0.1370   1.0481   1.2898   1.3254   1.3274   1.3472   1.4924
     1.6512   1.8337   1.8539   1.8552   1.9317   1.9438   2.0027   2.0184
     2.0188   2.0233   2.0750   2.0907   2.1176   2.2158   2.3270   2.3364
     2.3522   2.3667   2.4349   2.4972   2.6209   2.6596   2.9737   3.4445

          k = 0.0000 0.0000-0.3439 ( 50118 PWs)   bands (ev):

   -17.4442 -17.4442 -17.4428 -17.4428 -13.1440 -13.1440 -13.1433 -13.1433
   -13.1360 -13.1360 -13.1202 -13.1202 -13.0870 -13.0870 -13.0867 -13.0867
   -13.0835 -13.0835 -13.0833 -13.0833 -13.0786 -13.0786 -13.0775 -13.0775
    -8.8019  -8.8019  -8.3831  -8.3831  -8.3338  -8.3338  -8.3234  -8.3234
    -8.2138  -8.2138  -8.0996  -8.0996  -4.8380  -4.8380  -4.2893  -4.2893
    -4.2819  -4.2819  -4.2633  -4.2633  -4.2513  -4.2513  -4.2495  -4.2495
    -4.2484  -4.2484  -3.7882  -3.7882  -0.0589  -0.0589  -0.0061  -0.0061
     0.6771   0.6771   0.9354   0.9354   1.1633   1.1633   1.4297   1.4297
     1.4484   1.4484   1.8451   1.8451   1.9290   1.9290   2.0386   2.0386
     2.0403   2.0403   2.0790   2.0790   2.2406   2.2406   2.2475   2.2475
     2.3326   2.3326   2.3640   2.3640   2.5617   2.5617   3.0536   3.0536

          k = 0.0000 0.3288 0.0000 ( 50121 PWs)   bands (ev):

   -17.4442 -17.4435 -17.4434 -17.4429 -13.1493 -13.1458 -13.1377 -13.1371
   -13.1350 -13.1305 -13.1259 -13.1257 -13.0871 -13.0870 -13.0867 -13.0866
   -13.0837 -13.0836 -13.0831 -13.0830 -13.0784 -13.0783 -13.0778 -13.0778
    -8.8060  -8.6112  -8.5980  -8.4187  -8.3600  -8.3536  -8.2844  -8.2709
    -8.2049  -8.1591  -8.1580  -8.1290  -4.8524  -4.3944  -4.3852  -4.2926
    -4.2846  -4.2740  -4.2631  -4.2608  -4.2558  -4.2541  -4.2531  -4.2475
    -4.2436  -4.1769  -4.1752  -3.7917  -0.0601   0.0580   0.1991   0.3381
     0.4221   0.5109   0.9952   1.0779   1.2054   1.2362   1.2551   1.3293
     1.4082   1.5401   1.6536   1.6663   1.9051   1.9269   1.9753   1.9853
     2.0308   2.0405   2.0870   2.1127   2.1612   2.1816   2.2044   2.2278
     2.3096   2.3201   2.4081   2.4180   2.5266   2.5960   2.6915   2.9296

          k = 0.0000 0.3288-0.3439 ( 50184 PWs)   bands (ev):

   -17.4438 -17.4438 -17.4432 -17.4432 -13.1421 -13.1421 -13.1393 -13.1393
   -13.1362 -13.1362 -13.1259 -13.1259 -13.0869 -13.0869 -13.0868 -13.0868
   -13.0834 -13.0834 -13.0833 -13.0833 -13.0783 -13.0783 -13.0778 -13.0778
    -8.7279  -8.7279  -8.5450  -8.5450  -8.2797  -8.2797  -8.2491  -8.2491
    -8.2162  -8.2162  -8.1588  -8.1588  -4.6194  -4.6194  -4.2922  -4.2922
    -4.2737  -4.2737  -4.2699  -4.2699  -4.2585  -4.2585  -4.2476  -4.2476
    -4.2343  -4.2343  -4.0585  -4.0585   0.2640   0.2640   0.4072   0.4072
     0.7681   0.7681   0.8083   0.8083   1.0854   1.0854   1.1579   1.1579
     1.5255   1.5255   1.6197   1.6197   1.7464   1.7464   1.8103   1.8103
     1.9852   1.9852   2.0367   2.0367   2.2841   2.2841   2.3033   2.3033
     2.3411   2.3411   2.3497   2.3497   2.5506   2.5506   2.5786   2.5786

          k = 0.3311 0.0000 0.0000 ( 50214 PWs)   bands (ev):

   -17.4442 -17.4435 -17.4434 -17.4429 -13.1493 -13.1458 -13.1377 -13.1371
   -13.1350 -13.1305 -13.1259 -13.1257 -13.0871 -13.0870 -13.0867 -13.0866
   -13.0837 -13.0836 -13.0831 -13.0830 -13.0783 -13.0783 -13.0778 -13.0778
    -8.8073  -8.6146  -8.6003  -8.4265  -8.3603  -8.3542  -8.2762  -8.2620
    -8.2049  -8.1602  -8.1545  -8.1307  -4.8534  -4.3822  -4.3815  -4.2855
    -4.2820  -4.2770  -4.2765  -4.2750  -4.2674  -4.2522  -4.2443  -4.2434
    -4.2430  -4.1766  -4.1743  -3.7969  -0.0605   0.0588   0.2366   0.3673
     0.3708   0.4829   0.9498   1.1028   1.2164   1.2255   1.2435   1.3365
     1.4074   1.5286   1.6448   1.7004   1.9093   1.9189   1.9568   2.0087
     2.0195   2.0407   2.0856   2.1013   2.1531   2.1994   2.2197   2.2599
     2.3206   2.3539   2.4384   2.4653   2.5153   2.5481   2.6936   2.9180

          k = 0.3311 0.0000-0.3439 ( 50200 PWs)   bands (ev):

   -17.4438 -17.4438 -17.4432 -17.4432 -13.1421 -13.1421 -13.1393 -13.1393
   -13.1362 -13.1362 -13.1259 -13.1259 -13.0869 -13.0869 -13.0868 -13.0868
   -13.0834 -13.0834 -13.0833 -13.0833 -13.0783 -13.0783 -13.0778 -13.0778
    -8.7295  -8.7295  -8.5492  -8.5492  -8.2702  -8.2702  -8.2520  -8.2520
    -8.2177  -8.2177  -8.1572  -8.1572  -4.6195  -4.6195  -4.2923  -4.2923
    -4.2831  -4.2831  -4.2650  -4.2650  -4.2510  -4.2510  -4.2435  -4.2435
    -4.2350  -4.2350  -4.0675  -4.0675   0.2978   0.2978   0.3757   0.3757
     0.7223   0.7223   0.8183   0.8183   1.0653   1.0653   1.1708   1.1708
     1.5450   1.5450   1.6118   1.6118   1.7952   1.7952   1.8530   1.8530
     2.0034   2.0034   2.0112   2.0112   2.2357   2.2357   2.3251   2.3251
     2.3294   2.3294   2.3931   2.3931   2.5241   2.5241   2.5668   2.5668

          k = 0.3311 0.3288 0.0000 ( 50152 PWs)   bands (ev):

   -17.4440 -17.4436 -17.4433 -17.4430 -13.1499 -13.1478 -13.1393 -13.1358
   -13.1329 -13.1288 -13.1276 -13.1250 -13.0871 -13.0870 -13.0867 -13.0866
   -13.0836 -13.0836 -13.0831 -13.0831 -13.0782 -13.0782 -13.0780 -13.0779
    -8.7473  -8.6358  -8.5253  -8.3730  -8.3668  -8.3598  -8.3462  -8.3381
    -8.2642  -8.2260  -8.1225  -8.0925  -4.7047  -4.4671  -4.3272  -4.2798
    -4.2767  -4.2706  -4.2678  -4.2611  -4.2543  -4.2541  -4.2514  -4.2491
    -4.2424  -4.2115  -4.0799  -3.8800  -0.0450   0.0002   0.0072   0.1597
     0.3862   0.5649   0.9532   1.1094   1.1294   1.1356   1.2625   1.5253
     1.5488   1.6330   1.7555   1.8689   1.8732   1.9394   1.9485   1.9757
     2.0195   2.0420   2.0852   2.1169   2.1311   2.1458   2.1858   2.1924
     2.2069   2.2795   2.3231   2.3876   2.5673   2.6356   2.7437   2.9713

          k = 0.3311 0.3288-0.3439 ( 50168 PWs)   bands (ev):

   -17.4437 -17.4437 -17.4433 -17.4433 -13.1438 -13.1438 -13.1413 -13.1413
   -13.1317 -13.1317 -13.1268 -13.1268 -13.0869 -13.0869 -13.0868 -13.0868
   -13.0834 -13.0834 -13.0833 -13.0833 -13.0782 -13.0782 -13.0779 -13.0779
    -8.6670  -8.6670  -8.5566  -8.5566  -8.3467  -8.3467  -8.2777  -8.2777
    -8.1872  -8.1872  -8.1629  -8.1629  -4.4951  -4.4951  -4.3256  -4.3256
    -4.2743  -4.2743  -4.2612  -4.2612  -4.2506  -4.2506  -4.2414  -4.2414
    -4.2156  -4.2156  -4.1272  -4.1272   0.0660   0.0660   0.4426   0.4426
     0.6973   0.6973   0.8261   0.8261   1.0354   1.0354   1.2249   1.2249
     1.5121   1.5121   1.6206   1.6206   1.8341   1.8341   1.9479   1.9479
     2.0302   2.0302   2.1237   2.1237   2.1608   2.1608   2.2501   2.2501
     2.2942   2.2942   2.3759   2.3759   2.4811   2.4811   2.6424   2.6424

     highest occupied level (ev):     3.4445

!    total energy              =   -8165.85060647 Ry
     estimated scf accuracy    <          2.4E-09 Ry

     The total energy is the sum of the following terms:
     one-electron contribution =    -332.02874419 Ry
     hartree contribution      =     254.21614794 Ry
     xc contribution           =    -792.77861349 Ry
     ewald contribution        =    -645.63632192 Ry
     one-center paw contrib.   =   -6649.62307480 Ry

     convergence has been achieved in   8 iterations

     Forces acting on atoms (cartesian axes, Ry/au):

     atom    1 type  1   force =    -0.00162867   -0.00222102   -0.00000000
     atom    2 type  1   force =     0.00162867    0.00222102    0.00000000
     atom    3 type  1   force =    -0.00162867    0.00222102    0.00000000
     atom    4 type  1   force =     0.00162867   -0.00222102    0.00000000
     atom    5 type  2   force =     0.00000000    0.00000000   -0.00000000
     atom    6 type  2   force =     0.00000000    0.00000000    0.00000000
     atom    7 type  2   force =     0.00000000    0.00000000   -0.00000000
     atom    8 type  2   force =     0.00000000    0.00000000    0.00000000
     atom    9 type  3   force =     0.00136548    0.00079023   -0.00000000
     atom   10 type  3   force =    -0.00136548   -0.00079023   -0.00000000
     atom   11 type  3   force =     0.00136548   -0.00079023    0.00000000
     atom   12 type  3   force =    -0.00136548    0.00079023    0.00000000
     atom   13 type  3   force =     0.00224906    0.00329615    0.00006840
     atom   14 type  3   force =    -0.00224906   -0.00329615    0.00006840
     atom   15 type  3   force =     0.00224906   -0.00329615   -0.00006840
     atom   16 type  3   force =    -0.00224906    0.00329615   -0.00006840
     atom   17 type  3   force =    -0.00224906   -0.00329615   -0.00006840
     atom   18 type  3   force =     0.00224906    0.00329615   -0.00006840
     atom   19 type  3   force =    -0.00224906    0.00329615    0.00006840
     atom   20 type  3   force =     0.00224906   -0.00329615    0.00006840

     Total force =     0.012951     Total SCF correction =     0.000038


     Computing stress (Cartesian axis) and pressure

          total   stress  (Ry/bohr**3)                   (kbar)     P=        0.70
   0.00000064   0.00000000   0.00000000            0.09        0.00        0.00
   0.00000000   0.00001318   0.00000000            0.00        1.94        0.00
   0.00000000   0.00000000   0.00000048            0.00        0.00        0.07

     Energy error            =      5.8E-04 Ry
     Gradient error          =      3.3E-03 Ry/Bohr
     Cell gradient error     =      1.9E+00 kbar

     number of scf cycles    =  10
     number of bfgs steps    =   9

     enthalpy           old  =   -8165.8500310334 Ry
     enthalpy           new  =   -8165.8506064718 Ry

     CASE: enthalpy          _new < enthalpy          _old

     new trust radius        =       0.0606969392 bohr
     new conv_thr            =       0.0000000033 Ry

     new unit-cell volume =   6314.32968 a.u.^3 (   935.68712 Ang^3 )
     density =      5.11686 g/cm^3

CELL_PARAMETERS (angstrom)
   8.647295039   0.000000000   0.000000000
   0.000000000   8.676665060   0.000000000
   0.000000000   0.000000000  12.470892695

ATOMIC_POSITIONS (crystal)
Cs               0.4966698384        0.4471072844        0.2500000000
Cs               0.5033301616        0.5528927156        0.7500000000
Cs              -0.0033301616        0.0528927156        0.7500000000
Cs               1.0033301616        0.9471072844        0.2500000000
Pb               0.5000000000        0.0000000000       -0.0000000000
Pb               0.5000000000       -0.0000000000        0.5000000000
Pb               0.0000000000        0.5000000000       -0.0000000000
Pb               0.0000000000        0.5000000000        0.5000000000
I                0.5632534022        0.0069817516        0.2500000000
I                0.4367465978        0.9930182484        0.7500000000
I                0.0632534022        0.4930182484        0.7500000000
I                0.9367465978        0.5069817516        0.2500000000
I                0.6947091810        0.3022258253        0.9666577261
I                0.3052908190        0.6977741747        0.4666577261
I                0.1947091810        0.1977741747        0.0333422739
I                0.8052908190        0.8022258253        0.5333422739
I                0.3052908190        0.6977741747        0.0333422739
I                0.6947091810        0.3022258253        0.5333422739
I                0.8052908190        0.8022258253        0.9666577261
I                0.1947091810        0.1977741747        0.4666577261



     Writing config-only to output data dir ./tmp/cspbi3_gamma_s1.save/ :
     XML data file
     NEW-OLD atomic charge density approx. for the potential
     New effective cutoffs (rho, wfc):  499.74   62.41

     total cpu time spent up to now is    13176.0 secs

     Self-consistent Calculation

     iteration #  1     ecut=    60.00 Ry     beta= 0.50
     Davidson diagonalization with overlap
     ethr =  1.00E-06,  avg # of iterations =  8.0

     Threshold (ethr) on eigenvalues was too large:
     Diagonalizing with lowered threshold

     Davidson diagonalization with overlap
     ethr =  3.16E-08,  avg # of iterations =  4.5

     total cpu time spent up to now is    13505.4 secs

     total energy              =   -8165.85129345 Ry
     estimated scf accuracy    <       0.00007338 Ry

     iteration #  2     ecut=    60.00 Ry     beta= 0.50
     Davidson diagonalization with overlap
     ethr =  4.17E-08,  avg # of iterations =  2.0

     total cpu time spent up to now is    13615.4 secs

     total energy              =   -8165.85138235 Ry
     estimated scf accuracy    <       0.00000492 Ry

     iteration #  3     ecut=    60.00 Ry     beta= 0.50
     Davidson diagonalization with overlap
     ethr =  2.80E-09,  avg # of iterations =  6.9

     total cpu time spent up to now is    13766.9 secs

     total energy              =   -8165.85140347 Ry
     estimated scf accuracy    <       0.00000232 Ry

     iteration #  4     ecut=    60.00 Ry     beta= 0.50
     Davidson diagonalization with overlap
     ethr =  1.32E-09,  avg # of iterations =  1.1

     total cpu time spent up to now is    13847.0 secs

     total energy              =   -8165.85140832 Ry
     estimated scf accuracy    <       0.00000061 Ry

     iteration #  5     ecut=    60.00 Ry     beta= 0.50
     Davidson diagonalization with overlap
     ethr =  3.46E-10,  avg # of iterations =  3.6

     total cpu time spent up to now is    13949.8 secs

     total energy              =   -8165.85140955 Ry
     estimated scf accuracy    <       0.00000001 Ry

     iteration #  6     ecut=    60.00 Ry     beta= 0.50
     Davidson diagonalization with overlap
     ethr =  7.27E-12,  avg # of iterations =  7.1

     total cpu time spent up to now is    14179.0 secs

     End of self-consistent calculation

          k = 0.0000 0.0000 0.0000 ( 50101 PWs)   bands (ev):

   -17.4389 -17.4382 -17.4374 -17.4369 -13.1474 -13.1412 -13.1402 -13.1388
   -13.1332 -13.1251 -13.1172 -13.1171 -13.0837 -13.0834 -13.0833 -13.0830
   -13.0804 -13.0801 -13.0799 -13.0796 -13.0753 -13.0753 -13.0742 -13.0742
    -8.8796  -8.6788  -8.4098  -8.3573  -8.3447  -8.3432  -8.3294  -8.3279
    -8.3127  -8.1109  -8.0986  -8.0986  -5.0910  -4.5559  -4.2933  -4.2864
    -4.2821  -4.2669  -4.2611  -4.2592  -4.2580  -4.2578  -4.2570  -4.2496
    -4.2276  -4.2261  -3.9789  -3.4882  -0.1203  -0.1113  -0.0473  -0.0063
     0.0645   0.1459   1.0451   1.2879   1.3248   1.3270   1.3560   1.4922
     1.6587   1.8270   1.8598   1.8658   1.9342   1.9527   2.0028   2.0159
     2.0213   2.0229   2.0702   2.1073   2.1163   2.2050   2.3297   2.3302
     2.3559   2.3774   2.4382   2.4947   2.6251   2.6583   2.9802   3.4488

          k = 0.0000 0.0000-0.3439 ( 50118 PWs)   bands (ev):

   -17.4385 -17.4385 -17.4371 -17.4371 -13.1403 -13.1403 -13.1403 -13.1403
   -13.1324 -13.1324 -13.1172 -13.1172 -13.0835 -13.0835 -13.0831 -13.0831
   -13.0801 -13.0801 -13.0798 -13.0798 -13.0753 -13.0753 -13.0742 -13.0742
    -8.8016  -8.8016  -8.3781  -8.3781  -8.3359  -8.3359  -8.3216  -8.3216
    -8.2111  -8.2111  -8.0984  -8.0984  -4.8380  -4.8380  -4.2845  -4.2845
    -4.2779  -4.2779  -4.2586  -4.2586  -4.2462  -4.2462  -4.2427  -4.2427
    -4.2425  -4.2425  -3.7833  -3.7833  -0.0657  -0.0657  -0.0032  -0.0032
     0.6769   0.6769   0.9387   0.9387   1.1612   1.1612   1.4340   1.4340
     1.4508   1.4508   1.8510   1.8510   1.9343   1.9343   2.0381   2.0381
     2.0501   2.0501   2.0785   2.0785   2.2395   2.2395   2.2410   2.2410
     2.3346   2.3346   2.3694   2.3694   2.5650   2.5650   3.0608   3.0608

          k = 0.0000 0.3295 0.0000 ( 50121 PWs)   bands (ev):

   -17.4385 -17.4379 -17.4378 -17.4372 -13.1455 -13.1419 -13.1347 -13.1343
   -13.1313 -13.1270 -13.1230 -13.1228 -13.0836 -13.0834 -13.0832 -13.0830
   -13.0803 -13.0802 -13.0798 -13.0796 -13.0751 -13.0750 -13.0745 -13.0745
    -8.8046  -8.6086  -8.5990  -8.4179  -8.3554  -8.3491  -8.2857  -8.2722
    -8.2010  -8.1596  -8.1574  -8.1266  -4.8505  -4.3908  -4.3828  -4.2877
    -4.2814  -4.2688  -4.2581  -4.2546  -4.2502  -4.2485  -4.2469  -4.2419
    -4.2386  -4.1739  -4.1692  -3.7903  -0.0537   0.0640   0.1953   0.3350
     0.4276   0.5123   1.0016   1.0829   1.2090   1.2386   1.2552   1.3327
     1.4066   1.5427   1.6532   1.6683   1.9100   1.9239   1.9738   1.9874
     2.0278   2.0444   2.0883   2.1162   2.1621   2.1852   2.2087   2.2171
     2.3071   2.3161   2.4074   2.4198   2.5297   2.6017   2.6904   2.9289

          k = 0.0000 0.3295-0.3439 ( 50184 PWs)   bands (ev):

   -17.4382 -17.4382 -17.4375 -17.4375 -13.1384 -13.1384 -13.1357 -13.1357
   -13.1332 -13.1332 -13.1229 -13.1229 -13.0834 -13.0834 -13.0832 -13.0832
   -13.0801 -13.0801 -13.0799 -13.0799 -13.0751 -13.0751 -13.0745 -13.0745
    -8.7270  -8.7270  -8.5426  -8.5426  -8.2806  -8.2806  -8.2456  -8.2456
    -8.2137  -8.2137  -8.1587  -8.1587  -4.6186  -4.6186  -4.2868  -4.2868
    -4.2688  -4.2688  -4.2660  -4.2660  -4.2537  -4.2537  -4.2420  -4.2420
    -4.2280  -4.2280  -4.0540  -4.0540   0.2603   0.2603   0.4112   0.4112
     0.7689   0.7689   0.8101   0.8101   1.0899   1.0899   1.1621   1.1621
     1.5264   1.5264   1.6218   1.6218   1.7549   1.7549   1.8119   1.8119
     1.9792   1.9792   2.0378   2.0378   2.2792   2.2792   2.3047   2.3047
     2.3414   2.3414   2.3513   2.3513   2.5542   2.5542   2.5826   2.5826

          k = 0.3306 0.0000 0.0000 ( 50214 PWs)   bands (ev):

   -17.4385 -17.4379 -17.4378 -17.4372 -13.1456 -13.1420 -13.1347 -13.1343
   -13.1313 -13.1270 -13.1230 -13.1228 -13.0836 -13.0834 -13.0832 -13.0830
   -13.0803 -13.0802 -13.0798 -13.0796 -13.0751 -13.0750 -13.0745 -13.0745
    -8.8060  -8.6126  -8.6021  -8.4285  -8.3556  -8.3493  -8.2745  -8.2603
    -8.2041  -8.1588  -8.1529  -8.1291  -4.8506  -4.3779  -4.3738  -4.2810
    -4.2790  -4.2729  -4.2716  -4.2704  -4.2624  -4.2463  -4.2391  -4.2391
    -4.2370  -4.1754  -4.1716  -3.7965  -0.0533   0.0656   0.2391   0.3654
     0.3709   0.4807   0.9509   1.1043   1.2142   1.2273   1.2470   1.3343
     1.4121   1.5367   1.6481   1.7019   1.9107   1.9219   1.9563   2.0087
     2.0136   2.0402   2.0881   2.0992   2.1567   2.2073   2.2177   2.2621
     2.3256   2.3574   2.4355   2.4674   2.5230   2.5527   2.6941   2.9179

          k = 0.3306 0.0000-0.3439 ( 50200 PWs)   bands (ev):

   -17.4382 -17.4382 -17.4375 -17.4375 -13.1384 -13.1384 -13.1357 -13.1357
   -13.1332 -13.1332 -13.1229 -13.1229 -13.0834 -13.0834 -13.0832 -13.0832
   -13.0801 -13.0801 -13.0799 -13.0799 -13.0751 -13.0751 -13.0745 -13.0745
    -8.7289  -8.7289  -8.5478  -8.5478  -8.2683  -8.2683  -8.2502  -8.2502
    -8.2159  -8.2159  -8.1556  -8.1556  -4.6175  -4.6175  -4.2866  -4.2866
    -4.2793  -4.2793  -4.2603  -4.2603  -4.2445  -4.2445  -4.2384  -4.2384
    -4.2301  -4.2301  -4.0661  -4.0661   0.3001   0.3001   0.3739   0.3739
     0.7224   0.7224   0.8221   0.8221   1.0647   1.0647   1.1720   1.1720
     1.5458   1.5458   1.6214   1.6214   1.7916   1.7916   1.8613   1.8613
     2.0035   2.0035   2.0128   2.0128   2.2334   2.2334   2.3280   2.3280
     2.3286   2.3286   2.3954   2.3954   2.5300   2.5300   2.5725   2.5725

          k = 0.3306 0.3295 0.0000 ( 50152 PWs)   bands (ev):

   -17.4383 -17.4379 -17.4377 -17.4374 -13.1462 -13.1441 -13.1361 -13.1324
   -13.1299 -13.1256 -13.1246 -13.1218 -13.0836 -13.0835 -13.0832 -13.0831
   -13.0803 -13.0802 -13.0797 -13.0797 -13.0749 -13.0749 -13.0747 -13.0746
    -8.7455  -8.6331  -8.5263  -8.3735  -8.3612  -8.3549  -8.3462  -8.3393
    -8.2640  -8.2254  -8.1206  -8.0905  -4.7013  -4.4622  -4.3222  -4.2755
    -4.2723  -4.2648  -4.2639  -4.2559  -4.2493  -4.2488  -4.2459  -4.2432
    -4.2374  -4.2069  -4.0795  -3.8794  -0.0371   0.0001   0.0163   0.1528
     0.3888   0.5630   0.9554   1.1139   1.1327   1.1365   1.2653   1.5283
     1.5500   1.6353   1.7592   1.8712   1.8797   1.9368   1.9468   1.9737
     2.0195   2.0462   2.0876   2.1165   2.1336   2.1435   2.1875   2.1932
     2.2083   2.2813   2.3250   2.3895   2.5697   2.6366   2.7433   2.9727

          k = 0.3306 0.3295-0.3439 ( 50168 PWs)   bands (ev):

   -17.4380 -17.4380 -17.4376 -17.4376 -13.1403 -13.1403 -13.1377 -13.1377
   -13.1286 -13.1286 -13.1237 -13.1237 -13.0834 -13.0834 -13.0833 -13.0833
   -13.0800 -13.0800 -13.0799 -13.0799 -13.0749 -13.0749 -13.0747 -13.0747
    -8.6656  -8.6656  -8.5541  -8.5541  -8.3468  -8.3468  -8.2765  -8.2765
    -8.1852  -8.1852  -8.1612  -8.1612  -4.4923  -4.4923  -4.3204  -4.3204
    -4.2701  -4.2701  -4.2566  -4.2566  -4.2451  -4.2451  -4.2360  -4.2360
    -4.2111  -4.2111  -4.1240  -4.1240   0.0655   0.0655   0.4455   0.4455
     0.6960   0.6960   0.8280   0.8280   1.0368   1.0368   1.2271   1.2271
     1.5159   1.5159   1.6262   1.6262   1.8354   1.8354   1.9484   1.9484
     2.0340   2.0340   2.1242   2.1242   2.1623   2.1623   2.2516   2.2516
     2.2946   2.2946   2.3754   2.3754   2.4853   2.4853   2.6458   2.6458

     highest occupied level (ev):     3.4488

!    total energy              =   -8165.85140995 Ry
     estimated scf accuracy    <          2.2E-09 Ry

     The total energy is the sum of the following terms:
     one-electron contribution =    -332.27936027 Ry
     hartree contribution      =     254.36081194 Ry
     xc contribution           =    -792.78212093 Ry
     ewald contribution        =    -645.52756876 Ry
     one-center paw contrib.   =   -6649.62317192 Ry

     convergence has been achieved in   6 iterations

     Forces acting on atoms (cartesian axes, Ry/au):

     atom    1 type  1   force =    -0.00132821   -0.00124620   -0.00000000
     atom    2 type  1   force =     0.00132821    0.00124620    0.00000000
     atom    3 type  1   force =    -0.00132821    0.00124620    0.00000000
     atom    4 type  1   force =     0.00132821   -0.00124620    0.00000000
     atom    5 type  2   force =     0.00000000    0.00000000    0.00000000
     atom    6 type  2   force =     0.00000000    0.00000000    0.00000000
     atom    7 type  2   force =     0.00000000   -0.00000000   -0.00000000
     atom    8 type  2   force =     0.00000000    0.00000000    0.00000000
     atom    9 type  3   force =     0.00157632    0.00007964    0.00000000
     atom   10 type  3   force =    -0.00157632   -0.00007964    0.00000000
     atom   11 type  3   force =     0.00157632   -0.00007964    0.00000000
     atom   12 type  3   force =    -0.00157632    0.00007964    0.00000000
     atom   13 type  3   force =     0.00156958    0.00285032   -0.00028324
     atom   14 type  3   force =    -0.00156958   -0.00285032   -0.00028324
     atom   15 type  3   force =     0.00156958   -0.00285032    0.00028324
     atom   16 type  3   force =    -0.00156958    0.00285032    0.00028324
     atom   17 type  3   force =    -0.00156958   -0.00285032    0.00028324
     atom   18 type  3   force =     0.00156958    0.00285032    0.00028324
     atom   19 type  3   force =    -0.00156958    0.00285032   -0.00028324
     atom   20 type  3   force =     0.00156958   -0.00285032   -0.00028324

     Total force =     0.010420     Total SCF correction =     0.000195


     Computing stress (Cartesian axis) and pressure

          total   stress  (Ry/bohr**3)                   (kbar)     P=        0.77
  -0.00000024   0.00000000   0.00000000           -0.04        0.00        0.00
   0.00000000   0.00001719   0.00000000            0.00        2.53        0.00
   0.00000000   0.00000000  -0.00000116            0.00        0.00       -0.17

     Energy error            =      8.0E-04 Ry
     Gradient error          =      2.9E-03 Ry/Bohr
     Cell gradient error     =      2.5E+00 kbar

     number of scf cycles    =  11
     number of bfgs steps    =  10

     enthalpy           old  =   -8165.8506064718 Ry
     enthalpy           new  =   -8165.8514099487 Ry

     CASE: enthalpy          _new < enthalpy          _old

     new trust radius        =       0.0697670606 bohr
     new conv_thr            =       0.0000000029 Ry

     new unit-cell volume =   6319.36575 a.u.^3 (   936.43339 Ang^3 )
     density =      5.11278 g/cm^3

CELL_PARAMETERS (angstrom)
   8.660737939   0.000000000   0.000000000
   0.000000000   8.668137155   0.000000000
   0.000000000   0.000000000  12.473726545

ATOMIC_POSITIONS (crystal)
Cs               0.4942709167        0.4435874799        0.2500000000
Cs               0.5057290833        0.5564125201        0.7500000000
Cs              -0.0057290833        0.0564125201        0.7500000000
Cs               1.0057290833        0.9435874799        0.2500000000
Pb               0.5000000000        0.0000000000       -0.0000000000
Pb               0.5000000000       -0.0000000000        0.5000000000
Pb               0.0000000000        0.5000000000       -0.0000000000
Pb               0.0000000000        0.5000000000        0.5000000000
I                0.5641738250        0.0085240158        0.2500000000
I                0.4358261750        0.9914759842        0.7500000000
I                0.0641738250        0.4914759842        0.7500000000
I                0.9358261750        0.5085240158        0.2500000000
I                0.6956268837        0.3034662347        0.9671569805
I                0.3043731163        0.6965337653        0.4671569805
I                0.1956268837        0.1965337653        0.0328430195
I                0.8043731163        0.8034662347        0.5328430195
I                0.3043731163        0.6965337653        0.0328430195
I                0.6956268837        0.3034662347        0.5328430195
I                0.8043731163        0.8034662347        0.9671569805
I                0.1956268837        0.1965337653        0.4671569805



     Writing config-only to output data dir ./tmp/cspbi3_gamma_s1.save/ :
     XML data file
     NEW-OLD atomic charge density approx. for the potential
     New effective cutoffs (rho, wfc):  500.71   62.53

     total cpu time spent up to now is    14311.6 secs

     Self-consistent Calculation

     iteration #  1     ecut=    60.00 Ry     beta= 0.50
     Davidson diagonalization with overlap
     ethr =  1.00E-06,  avg # of iterations =  8.1

     Threshold (ethr) on eigenvalues was too large:
     Diagonalizing with lowered threshold

     Davidson diagonalization with overlap
     ethr =  6.49E-08,  avg # of iterations =  5.2

     total cpu time spent up to now is    14630.0 secs

     total energy              =   -8165.85196690 Ry
     estimated scf accuracy    <       0.00013967 Ry

     iteration #  2     ecut=    60.00 Ry     beta= 0.50
     Davidson diagonalization with overlap
     ethr =  7.94E-08,  avg # of iterations =  2.0

     total cpu time spent up to now is    14739.1 secs

     total energy              =   -8165.85209022 Ry
     estimated scf accuracy    <       0.00000835 Ry

     iteration #  3     ecut=    60.00 Ry     beta= 0.50
     Davidson diagonalization with overlap
     ethr =  4.74E-09,  avg # of iterations =  5.1

     total cpu time spent up to now is    14896.0 secs

     total energy              =   -8165.85212083 Ry
     estimated scf accuracy    <       0.00000933 Ry

     iteration #  4     ecut=    60.00 Ry     beta= 0.50
     Davidson diagonalization with overlap
     ethr =  4.74E-09,  avg # of iterations =  1.0

     total cpu time spent up to now is    14977.0 secs

     total energy              =   -8165.85212738 Ry
     estimated scf accuracy    <       0.00000486 Ry

     iteration #  5     ecut=    60.00 Ry     beta= 0.50
     Davidson diagonalization with overlap
     ethr =  2.76E-09,  avg # of iterations =  3.9

     total cpu time spent up to now is    15076.4 secs

     total energy              =   -8165.85212931 Ry
     estimated scf accuracy    <       0.00000012 Ry

     iteration #  6     ecut=    60.00 Ry     beta= 0.50
     Davidson diagonalization with overlap
     ethr =  6.66E-11,  avg # of iterations =  5.1

     total cpu time spent up to now is    15243.1 secs

     total energy              =   -8165.85212970 Ry
     estimated scf accuracy    <       0.00000013 Ry

     iteration #  7     ecut=    60.00 Ry     beta= 0.50
     Davidson diagonalization with overlap
     ethr =  6.66E-11,  avg # of iterations =  3.1

     total cpu time spent up to now is    15344.0 secs

     total energy              =   -8165.85212981 Ry
     estimated scf accuracy    <          5.9E-09 Ry

     iteration #  8     ecut=    60.00 Ry     beta= 0.50
     Davidson diagonalization with overlap
     ethr =  3.35E-12,  avg # of iterations =  6.0

     total cpu time spent up to now is    15501.7 secs

     End of self-consistent calculation

          k = 0.0000 0.0000 0.0000 ( 50101 PWs)   bands (ev):

   -17.4433 -17.4426 -17.4418 -17.4413 -13.1573 -13.1509 -13.1507 -13.1495
   -13.1432 -13.1353 -13.1279 -13.1279 -13.0940 -13.0936 -13.0936 -13.0932
   -13.0913 -13.0909 -13.0908 -13.0904 -13.0862 -13.0862 -13.0851 -13.0851
    -8.8850  -8.6867  -8.4148  -8.3656  -8.3501  -8.3493  -8.3380  -8.3360
    -8.3188  -8.1191  -8.1072  -8.1066  -5.0977  -4.5654  -4.2998  -4.2912
    -4.2878  -4.2722  -4.2668  -4.2641  -4.2631  -4.2617  -4.2606  -4.2544
    -4.2316  -4.2307  -3.9871  -3.4998  -0.1326  -0.1090  -0.0487  -0.0199
     0.0573   0.1479   1.0346   1.2789   1.3158   1.3195   1.3573   1.4792
     1.6591   1.8094   1.8556   1.8699   1.9263   1.9464   1.9890   2.0091
     2.0119   2.0148   2.0536   2.1050   2.1216   2.1822   2.3119   2.3225
     2.3496   2.3803   2.4305   2.4807   2.6175   2.6433   2.9699   3.4353

          k = 0.0000 0.0000-0.3438 ( 50118 PWs)   bands (ev):

   -17.4429 -17.4429 -17.4415 -17.4415 -13.1507 -13.1507 -13.1502 -13.1502
   -13.1425 -13.1425 -13.1279 -13.1279 -13.0938 -13.0938 -13.0934 -13.0934
   -13.0911 -13.0911 -13.0907 -13.0907 -13.0862 -13.0862 -13.0851 -13.0851
    -8.8077  -8.8077  -8.3833  -8.3833  -8.3460  -8.3460  -8.3276  -8.3276
    -8.2183  -8.2183  -8.1067  -8.1067  -4.8463  -4.8463  -4.2898  -4.2898
    -4.2841  -4.2841  -4.2641  -4.2641  -4.2512  -4.2512  -4.2465  -4.2465
    -4.2457  -4.2457  -3.7926  -3.7926  -0.0773  -0.0773  -0.0049  -0.0049
     0.6684   0.6684   0.9322   0.9322   1.1518   1.1518   1.4286   1.4286
     1.4457   1.4457   1.8460   1.8460   1.9304   1.9304   2.0260   2.0260
     2.0481   2.0481   2.0731   2.0731   2.2179   2.2179   2.2346   2.2346
     2.3276   2.3276   2.3645   2.3645   2.5559   2.5559   3.0513   3.0513

          k = 0.0000 0.3298 0.0000 ( 50121 PWs)   bands (ev):

   -17.4429 -17.4423 -17.4421 -17.4416 -13.1554 -13.1517 -13.1451 -13.1450
   -13.1412 -13.1372 -13.1336 -13.1336 -13.0939 -13.0937 -13.0935 -13.0933
   -13.0912 -13.0910 -13.0907 -13.0905 -13.0859 -13.0859 -13.0854 -13.0854
    -8.8100  -8.6139  -8.6065  -8.4246  -8.3608  -8.3544  -8.2949  -8.2817
    -8.2054  -8.1704  -8.1659  -8.1345  -4.8576  -4.3982  -4.3901  -4.2930
    -4.2885  -4.2740  -4.2629  -4.2590  -4.2543  -4.2533  -4.2509  -4.2462
    -4.2433  -4.1812  -4.1738  -3.8015  -0.0549   0.0608   0.1861   0.3279
     0.4247   0.5057   1.0046   1.0809   1.2093   1.2330   1.2485   1.3287
     1.3960   1.5335   1.6398   1.6606   1.9057   1.9112   1.9618   1.9792
     2.0133   2.0362   2.0782   2.1113   2.1519   2.1789   2.1930   2.2039
     2.2935   2.2992   2.3970   2.4108   2.5247   2.5968   2.6783   2.9171

          k = 0.0000 0.3298-0.3438 ( 50184 PWs)   bands (ev):

   -17.4426 -17.4426 -17.4419 -17.4419 -13.1483 -13.1483 -13.1453 -13.1453
   -13.1441 -13.1441 -13.1336 -13.1336 -13.0937 -13.0937 -13.0935 -13.0935
   -13.0910 -13.0910 -13.0908 -13.0908 -13.0859 -13.0859 -13.0854 -13.0854
    -8.7330  -8.7330  -8.5483  -8.5483  -8.2896  -8.2896  -8.2511  -8.2511
    -8.2213  -8.2213  -8.1681  -8.1681  -4.6270  -4.6270  -4.2914  -4.2914
    -4.2744  -4.2744  -4.2725  -4.2725  -4.2589  -4.2589  -4.2465  -4.2465
    -4.2316  -4.2316  -4.0616  -4.0616   0.2512   0.2512   0.4074   0.4074
     0.7606   0.7606   0.8031   0.8031   1.0911   1.0911   1.1590   1.1590
     1.5169   1.5169   1.6159   1.6159   1.7558   1.7558   1.8053   1.8053
     1.9575   1.9575   2.0247   2.0247   2.2626   2.2626   2.2967   2.2967
     2.3307   2.3307   2.3431   2.3431   2.5478   2.5478   2.5778   2.5778

          k = 0.3301 0.0000 0.0000 ( 50214 PWs)   bands (ev):

   -17.4429 -17.4423 -17.4421 -17.4416 -13.1554 -13.1517 -13.1451 -13.1450
   -13.1412 -13.1372 -13.1336 -13.1336 -13.0939 -13.0937 -13.0935 -13.0933
   -13.0912 -13.0910 -13.0907 -13.0905 -13.0859 -13.0859 -13.0854 -13.0854
    -8.8115  -8.6185  -8.6104  -8.4378  -8.3608  -8.3545  -8.2811  -8.2669
    -8.2137  -8.1659  -8.1606  -8.1375  -4.8567  -4.3838  -4.3766  -4.2870
    -4.2866  -4.2785  -4.2770  -4.2758  -4.2674  -4.2507  -4.2449  -4.2438
    -4.2410  -4.1835  -4.1802  -3.8085  -0.0540   0.0635   0.2354   0.3577
     0.3653   0.4744   0.9395   1.0971   1.1989   1.2204   1.2425   1.3233
     1.4075   1.5421   1.6412   1.6977   1.9054   1.9166   1.9478   1.9987
     1.9990   2.0293   2.0835   2.0872   2.1516   2.2054   2.2055   2.2570
     2.3218   2.3516   2.4210   2.4580   2.5178   2.5407   2.6799   2.9000

          k = 0.3301 0.0000-0.3438 ( 50200 PWs)   bands (ev):

   -17.4426 -17.4426 -17.4419 -17.4419 -13.1483 -13.1483 -13.1454 -13.1454
   -13.1441 -13.1441 -13.1336 -13.1336 -13.0937 -13.0937 -13.0935 -13.0935
   -13.0910 -13.0910 -13.0908 -13.0908 -13.0859 -13.0859 -13.0854 -13.0854
    -8.7351  -8.7351  -8.5543  -8.5543  -8.2756  -8.2756  -8.2582  -8.2582
    -8.2234  -8.2234  -8.1629  -8.1629  -4.6249  -4.6249  -4.2915  -4.2915
    -4.2855  -4.2855  -4.2656  -4.2656  -4.2480  -4.2480  -4.2435  -4.2435
    -4.2349  -4.2349  -4.0768  -4.0768   0.2962   0.2962   0.3665   0.3665
     0.7137   0.7137   0.8180   0.8180   1.0512   1.0512   1.1645   1.1645
     1.5398   1.5398   1.6224   1.6224   1.7769   1.7769   1.8597   1.8597
     1.9977   1.9977   2.0120   2.0120   2.2211   2.2211   2.3156   2.3156
     2.3229   2.3229   2.3867   2.3867   2.5219   2.5219   2.5617   2.5617

          k = 0.3301 0.3298 0.0000 ( 50152 PWs)   bands (ev):

   -17.4427 -17.4423 -17.4421 -17.4418 -13.1561 -13.1539 -13.1463 -13.1424
   -13.1405 -13.1360 -13.1352 -13.1323 -13.0938 -13.0937 -13.0935 -13.0933
   -13.0912 -13.0911 -13.0907 -13.0906 -13.0858 -13.0858 -13.0855 -13.0855
    -8.7508  -8.6384  -8.5342  -8.3817  -8.3645  -8.3600  -8.3540  -8.3493
    -8.2724  -8.2335  -8.1286  -8.0987  -4.7079  -4.4682  -4.3272  -4.2818
    -4.2782  -4.2703  -4.2691  -4.2608  -4.2548  -4.2535  -4.2505  -4.2472
    -4.2425  -4.2127  -4.0898  -3.8910  -0.0371  -0.0051   0.0177   0.1409
     0.3849   0.5549   0.9494   1.1113   1.1289   1.1292   1.2601   1.5226
     1.5431   1.6277   1.7560   1.8634   1.8768   1.9252   1.9330   1.9649
     2.0092   2.0402   2.0812   2.1044   2.1286   2.1320   2.1785   2.1855
     2.1995   2.2727   2.3158   2.3794   2.5598   2.6252   2.7295   2.9588

          k = 0.3301 0.3298-0.3438 ( 50168 PWs)   bands (ev):

   -17.4424 -17.4424 -17.4420 -17.4420 -13.1503 -13.1503 -13.1476 -13.1476
   -13.1392 -13.1392 -13.1343 -13.1343 -13.0937 -13.0937 -13.0935 -13.0935
   -13.0909 -13.0909 -13.0908 -13.0908 -13.0858 -13.0858 -13.0855 -13.0855
    -8.6716  -8.6716  -8.5597  -8.5597  -8.3548  -8.3548  -8.2842  -8.2842
    -8.1929  -8.1929  -8.1691  -8.1691  -4.4996  -4.4996  -4.3255  -4.3255
    -4.2762  -4.2762  -4.2624  -4.2624  -4.2496  -4.2496  -4.2406  -4.2406
    -4.2169  -4.2169  -4.1324  -4.1324   0.0600   0.0600   0.4419   0.4419
     0.6863   0.6863   0.8214   0.8214   1.0297   1.0297   1.2213   1.2213
     1.5117   1.5117   1.6242   1.6242   1.8277   1.8277   1.9391   1.9391
     2.0287   2.0287   2.1152   2.1152   2.1537   2.1537   2.2433   2.2433
     2.2840   2.2840   2.3636   2.3636   2.4780   2.4780   2.6354   2.6354

     highest occupied level (ev):     3.4353

!    total energy              =   -8165.85212984 Ry
     estimated scf accuracy    <          4.2E-10 Ry

     The total energy is the sum of the following terms:
     one-electron contribution =    -332.96311859 Ry
     hartree contribution      =     254.64968991 Ry
     xc contribution           =    -792.77811281 Ry
     ewald contribution        =    -645.13786766 Ry
     one-center paw contrib.   =   -6649.62272069 Ry

     convergence has been achieved in   8 iterations

     Forces acting on atoms (cartesian axes, Ry/au):

     atom    1 type  1   force =    -0.00112630   -0.00025226    0.00000000
     atom    2 type  1   force =     0.00112630    0.00025226   -0.00000000
     atom    3 type  1   force =    -0.00112630    0.00025226    0.00000000
     atom    4 type  1   force =     0.00112630   -0.00025226    0.00000000
     atom    5 type  2   force =     0.00000000    0.00000000   -0.00000000
     atom    6 type  2   force =     0.00000000    0.00000000    0.00000000
     atom    7 type  2   force =     0.00000000   -0.00000000    0.00000000
     atom    8 type  2   force =     0.00000000    0.00000000    0.00000000
     atom    9 type  3   force =     0.00173484   -0.00078922   -0.00000000
     atom   10 type  3   force =    -0.00173484    0.00078922    0.00000000
     atom   11 type  3   force =     0.00173484    0.00078922   -0.00000000
     atom   12 type  3   force =    -0.00173484   -0.00078922   -0.00000000
     atom   13 type  3   force =    -0.00004629    0.00134126   -0.00061168
     atom   14 type  3   force =     0.00004629   -0.00134126   -0.00061168
     atom   15 type  3   force =    -0.00004629   -0.00134126    0.00061168
     atom   16 type  3   force =     0.00004629    0.00134126    0.00061168
     atom   17 type  3   force =     0.00004629   -0.00134126    0.00061168
     atom   18 type  3   force =    -0.00004629    0.00134126    0.00061168
     atom   19 type  3   force =     0.00004629    0.00134126   -0.00061168
     atom   20 type  3   force =    -0.00004629   -0.00134126   -0.00061168

     Total force =     0.006104     Total SCF correction =     0.000050


     Computing stress (Cartesian axis) and pressure

          total   stress  (Ry/bohr**3)                   (kbar)     P=        0.61
  -0.00000103   0.00000000   0.00000000           -0.15        0.00        0.00
   0.00000000   0.00001731   0.00000000            0.00        2.55        0.00
   0.00000000   0.00000000  -0.00000378            0.00        0.00       -0.56

     Energy error            =      7.2E-04 Ry
     Gradient error          =      1.7E-03 Ry/Bohr
     Cell gradient error     =      2.5E+00 kbar

     number of scf cycles    =  12
     number of bfgs steps    =  11

     enthalpy           old  =   -8165.8514099487 Ry
     enthalpy           new  =   -8165.8521298408 Ry

     CASE: enthalpy          _new < enthalpy          _old

     new trust radius        =       0.0184428563 bohr
     new conv_thr            =       0.0000000017 Ry

     new unit-cell volume =   6327.35072 a.u.^3 (   937.61664 Ang^3 )
     density =      5.10633 g/cm^3

CELL_PARAMETERS (angstrom)
   8.661760973   0.000000000   0.000000000
   0.000000000   8.678192274   0.000000000
   0.000000000   0.000000000  12.473543428

ATOMIC_POSITIONS (crystal)
Cs               0.4937483008        0.4429427431        0.2500000000
Cs               0.5062516992        0.5570572569        0.7500000000
Cs              -0.0062516992        0.0570572569        0.7500000000
Cs               1.0062516992        0.9429427431        0.2500000000
Pb               0.5000000000        0.0000000000       -0.0000000000
Pb               0.5000000000       -0.0000000000        0.5000000000
Pb               0.0000000000        0.5000000000       -0.0000000000
Pb               0.0000000000        0.5000000000        0.5000000000
I                0.5645629290        0.0087369964        0.2500000000
I                0.4354370710        0.9912630036        0.7500000000
I                0.0645629290        0.4912630036        0.7500000000
I                0.9354370710        0.5087369964        0.2500000000
I                0.6960846097        0.3041568105        0.9671879907
I                0.3039153903        0.6958431895        0.4671879907
I                0.1960846097        0.1958431895        0.0328120093
I                0.8039153903        0.8041568105        0.5328120093
I                0.3039153903        0.6958431895        0.0328120093
I                0.6960846097        0.3041568105        0.5328120093
I                0.8039153903        0.8041568105        0.9671879907
I                0.1960846097        0.1958431895        0.4671879907



     Writing config-only to output data dir ./tmp/cspbi3_gamma_s1.save/ :
     XML data file
     NEW-OLD atomic charge density approx. for the potential
     New effective cutoffs (rho, wfc):  499.56   62.39

     total cpu time spent up to now is    15653.4 secs

     Self-consistent Calculation

     iteration #  1     ecut=    60.00 Ry     beta= 0.50
     Davidson diagonalization with overlap
     ethr =  1.00E-06,  avg # of iterations =  3.8

     Threshold (ethr) on eigenvalues was too large:
     Diagonalizing with lowered threshold

     Davidson diagonalization with overlap
     ethr =  1.95E-08,  avg # of iterations =  6.2

     total cpu time spent up to now is    16012.1 secs

     total energy              =   -8165.85233171 Ry
     estimated scf accuracy    <       0.00005461 Ry

     iteration #  2     ecut=    60.00 Ry     beta= 0.50
     Davidson diagonalization with overlap
     ethr =  3.10E-08,  avg # of iterations =  4.0

     total cpu time spent up to now is    16145.8 secs

     total energy              =   -8165.85235447 Ry
     estimated scf accuracy    <       0.00000395 Ry

     iteration #  3     ecut=    60.00 Ry     beta= 0.50
     Davidson diagonalization with overlap
     ethr =  2.25E-09,  avg # of iterations =  5.2

     total cpu time spent up to now is    16260.3 secs

     total energy              =   -8165.85235869 Ry
     estimated scf accuracy    <       0.00000360 Ry

     iteration #  4     ecut=    60.00 Ry     beta= 0.50
     Davidson diagonalization with overlap
     ethr =  2.04E-09,  avg # of iterations =  2.0

     total cpu time spent up to now is    16357.4 secs

     total energy              =   -8165.85235976 Ry
     estimated scf accuracy    <       0.00000030 Ry

     iteration #  5     ecut=    60.00 Ry     beta= 0.50
     Davidson diagonalization with overlap
     ethr =  1.72E-10,  avg # of iterations =  6.4

     total cpu time spent up to now is    16492.5 secs

     total energy              =   -8165.85236011 Ry
     estimated scf accuracy    <       0.00000016 Ry

     iteration #  6     ecut=    60.00 Ry     beta= 0.50
     Davidson diagonalization with overlap
     ethr =  9.00E-11,  avg # of iterations =  3.8

     total cpu time spent up to now is    16587.0 secs

     total energy              =   -8165.85236014 Ry
     estimated scf accuracy    <          3.4E-09 Ry

     iteration #  7     ecut=    60.00 Ry     beta= 0.50
     Davidson diagonalization with overlap
     ethr =  1.91E-12,  avg # of iterations =  6.1

     total cpu time spent up to now is    16772.6 secs

     End of self-consistent calculation

          k = 0.0000 0.0000 0.0000 ( 50101 PWs)   bands (ev):

   -17.4541 -17.4535 -17.4527 -17.4522 -13.1712 -13.1646 -13.1645 -13.1638
   -13.1572 -13.1494 -13.1420 -13.1420 -13.1083 -13.1079 -13.1079 -13.1075
   -13.1059 -13.1055 -13.1054 -13.1050 -13.1008 -13.1008 -13.0997 -13.0997
    -8.8916  -8.6933  -8.4248  -8.3759  -8.3593  -8.3582  -8.3466  -8.3446
    -8.3274  -8.1296  -8.1175  -8.1171  -5.1055  -4.5743  -4.3105  -4.3019
    -4.2985  -4.2828  -4.2775  -4.2748  -4.2738  -4.2725  -4.2714  -4.2651
    -4.2420  -4.2414  -4.0016  -3.5153  -0.1380  -0.1159  -0.0536  -0.0255
     0.0516   0.1400   1.0266   1.2715   1.3069   1.3117   1.3494   1.4654
     1.6517   1.7980   1.8464   1.8621   1.9156   1.9340   1.9745   2.0006
     2.0007   2.0051   2.0409   2.0943   2.1189   2.1693   2.2988   2.3119
     2.3386   2.3717   2.4180   2.4687   2.6051   2.6290   2.9519   3.4169

          k = 0.0000 0.0000-0.3438 ( 50118 PWs)   bands (ev):

   -17.4538 -17.4538 -17.4524 -17.4524 -13.1646 -13.1646 -13.1642 -13.1642
   -13.1566 -13.1566 -13.1420 -13.1420 -13.1081 -13.1081 -13.1077 -13.1077
   -13.1057 -13.1057 -13.1052 -13.1052 -13.1008 -13.1008 -13.0997 -13.0997
    -8.8145  -8.8145  -8.3933  -8.3933  -8.3545  -8.3545  -8.3362  -8.3362
    -8.2284  -8.2284  -8.1171  -8.1171  -4.8546  -4.8546  -4.3005  -4.3005
    -4.2947  -4.2947  -4.2749  -4.2749  -4.2619  -4.2619  -4.2571  -4.2571
    -4.2562  -4.2562  -3.8075  -3.8075  -0.0824  -0.0824  -0.0098  -0.0098
     0.6595   0.6595   0.9220   0.9220   1.1439   1.1439   1.4182   1.4182
     1.4382   1.4382   1.8350   1.8350   1.9209   1.9209   2.0153   2.0153
     2.0371   2.0371   2.0651   2.0651   2.2033   2.2033   2.2263   2.2263
     2.3179   2.3179   2.3531   2.3531   2.5425   2.5425   3.0337   3.0337

          k = 0.0000 0.3294 0.0000 ( 50121 PWs)   bands (ev):

   -17.4538 -17.4532 -17.4530 -17.4525 -13.1693 -13.1657 -13.1590 -13.1590
   -13.1552 -13.1513 -13.1477 -13.1477 -13.1082 -13.1080 -13.1078 -13.1076
   -13.1058 -13.1056 -13.1053 -13.1051 -13.1005 -13.1005 -13.1000 -13.1000
    -8.8171  -8.6221  -8.6136  -8.4326  -8.3707  -8.3643  -8.3036  -8.2907
    -8.2146  -8.1812  -8.1757  -8.1451  -4.8670  -4.4099  -4.3996  -4.3038
    -4.2995  -4.2848  -4.2737  -4.2698  -4.2650  -4.2641  -4.2617  -4.2568
    -4.2539  -4.1923  -4.1851  -3.8148  -0.0627   0.0520   0.1804   0.3230
     0.4158   0.4970   1.0011   1.0735   1.2056   1.2243   1.2412   1.3208
     1.3863   1.5211   1.6264   1.6503   1.8958   1.9012   1.9511   1.9683
     2.0007   2.0235   2.0669   2.1027   2.1400   2.1683   2.1784   2.1944
     2.2810   2.2854   2.3862   2.3992   2.5158   2.5857   2.6669   2.9055

          k = 0.0000 0.3294-0.3438 ( 50184 PWs)   bands (ev):

   -17.4535 -17.4535 -17.4528 -17.4528 -13.1623 -13.1623 -13.1590 -13.1590
   -13.1585 -13.1585 -13.1477 -13.1477 -13.1080 -13.1080 -13.1078 -13.1078
   -13.1056 -13.1056 -13.1054 -13.1054 -13.1005 -13.1005 -13.1000 -13.1000
    -8.7402  -8.7402  -8.5566  -8.5566  -8.2983  -8.2983  -8.2605  -8.2605
    -8.2316  -8.2316  -8.1783  -8.1783  -4.6365  -4.6365  -4.3019  -4.3019
    -4.2854  -4.2854  -4.2836  -4.2836  -4.2697  -4.2697  -4.2572  -4.2572
    -4.2422  -4.2422  -4.0743  -4.0743   0.2456   0.2456   0.3993   0.3993
     0.7509   0.7509   0.7937   0.7937   1.0876   1.0876   1.1511   1.1511
     1.5059   1.5059   1.6077   1.6077   1.7483   1.7483   1.7962   1.7962
     1.9405   1.9405   2.0099   2.0099   2.2502   2.2502   2.2868   2.2868
     2.3188   2.3188   2.3326   2.3326   2.5372   2.5372   2.5684   2.5684

          k = 0.3301 0.0000 0.0000 ( 50214 PWs)   bands (ev):

   -17.4538 -17.4532 -17.4530 -17.4525 -13.1693 -13.1657 -13.1590 -13.1590
   -13.1552 -13.1513 -13.1477 -13.1477 -13.1082 -13.1080 -13.1078 -13.1076
   -13.1058 -13.1056 -13.1053 -13.1051 -13.1005 -13.1005 -13.1000 -13.1000
    -8.8185  -8.6265  -8.6174  -8.4457  -8.3707  -8.3645  -8.2904  -8.2760
    -8.2247  -8.1749  -8.1706  -8.1477  -4.8658  -4.3938  -4.3878  -4.2980
    -4.2974  -4.2891  -4.2877  -4.2865  -4.2781  -4.2614  -4.2558  -4.2546
    -4.2517  -4.1937  -4.1922  -3.8215  -0.0618   0.0547   0.2288   0.3515
     0.3588   0.4696   0.9265   1.0882   1.1853   1.2113   1.2344   1.3142
     1.3978   1.5387   1.6306   1.6913   1.8978   1.9080   1.9395   1.9877
     1.9896   2.0179   2.0759   2.0762   2.1429   2.1937   2.1960   2.2478
     2.3117   2.3417   2.4089   2.4460   2.5041   2.5227   2.6646   2.8816

          k = 0.3301 0.0000-0.3438 ( 50200 PWs)   bands (ev):

   -17.4535 -17.4535 -17.4528 -17.4528 -13.1623 -13.1623 -13.1590 -13.1590
   -13.1585 -13.1585 -13.1477 -13.1477 -13.1080 -13.1080 -13.1078 -13.1078
   -13.1056 -13.1056 -13.1053 -13.1053 -13.1005 -13.1005 -13.1000 -13.1000
    -8.7422  -8.7422  -8.5624  -8.5624  -8.2852  -8.2852  -8.2683  -8.2683
    -8.2331  -8.2331  -8.1725  -8.1725  -4.6343  -4.6343  -4.3023  -4.3023
    -4.2963  -4.2963  -4.2763  -4.2763  -4.2585  -4.2585  -4.2543  -4.2543
    -4.2455  -4.2455  -4.0896  -4.0896   0.2897   0.2897   0.3606   0.3606
     0.7044   0.7044   0.8098   0.8098   1.0377   1.0377   1.1555   1.1555
     1.5324   1.5324   1.6142   1.6142   1.7648   1.7648   1.8503   1.8503
     1.9918   1.9918   2.0071   2.0071   2.2105   2.2105   2.3035   2.3035
     2.3131   2.3131   2.3752   2.3752   2.5070   2.5070   2.5441   2.5441

          k = 0.3301 0.3294 0.0000 ( 50152 PWs)   bands (ev):

   -17.4536 -17.4532 -17.4530 -17.4526 -13.1700 -13.1679 -13.1602 -13.1564
   -13.1546 -13.1502 -13.1493 -13.1464 -13.1082 -13.1081 -13.1078 -13.1077
   -13.1057 -13.1056 -13.1052 -13.1051 -13.1004 -13.1004 -13.1001 -13.1001
    -8.7582  -8.6465  -8.5417  -8.3900  -8.3734  -8.3698  -8.3626  -8.3589
    -8.2818  -8.2429  -8.1390  -8.1092  -4.7182  -4.4796  -4.3373  -4.2927
    -4.2890  -4.2813  -4.2799  -4.2716  -4.2656  -4.2643  -4.2612  -4.2579
    -4.2533  -4.2239  -4.1014  -3.9039  -0.0448  -0.0102   0.0100   0.1349
     0.3781   0.5480   0.9406   1.1038   1.1206   1.1212   1.2516   1.5136
     1.5345   1.6175   1.7484   1.8530   1.8677   1.9150   1.9221   1.9558
     1.9977   2.0298   2.0715   2.0919   2.1207   2.1216   2.1676   2.1752
     2.1887   2.2616   2.3035   2.3665   2.5466   2.6120   2.7157   2.9431

          k = 0.3301 0.3294-0.3438 ( 50168 PWs)   bands (ev):

   -17.4533 -17.4533 -17.4529 -17.4529 -13.1642 -13.1642 -13.1616 -13.1616
   -13.1533 -13.1533 -13.1484 -13.1484 -13.1080 -13.1080 -13.1079 -13.1079
   -13.1055 -13.1055 -13.1054 -13.1054 -13.1004 -13.1004 -13.1001 -13.1001
    -8.6791  -8.6791  -8.5681  -8.5681  -8.3634  -8.3634  -8.2936  -8.2936
    -8.2029  -8.2029  -8.1791  -8.1791  -4.5098  -4.5098  -4.3362  -4.3362
    -4.2872  -4.2872  -4.2733  -4.2733  -4.2603  -4.2603  -4.2514  -4.2514
    -4.2279  -4.2279  -4.1447  -4.1447   0.0549   0.0549   0.4354   0.4354
     0.6771   0.6771   0.8125   0.8125   1.0207   1.0207   1.2128   1.2128
     1.5034   1.5034   1.6164   1.6164   1.8180   1.8180   1.9286   1.9286
     2.0191   2.0191   2.1049   2.1049   2.1428   2.1428   2.2329   2.2329
     2.2723   2.2723   2.3514   2.3514   2.4659   2.4659   2.6207   2.6207

     highest occupied level (ev):     3.4169

!    total energy              =   -8165.85236016 Ry
     estimated scf accuracy    <          1.6E-09 Ry

     The total energy is the sum of the following terms:
     one-electron contribution =    -333.38566291 Ry
     hartree contribution      =     254.78401597 Ry
     xc contribution           =    -792.76946402 Ry
     ewald contribution        =    -644.85904486 Ry
     one-center paw contrib.   =   -6649.62220434 Ry

     convergence has been achieved in   7 iterations

     Forces acting on atoms (cartesian axes, Ry/au):

     atom    1 type  1   force =    -0.00109439   -0.00022157    0.00000000
     atom    2 type  1   force =     0.00109439    0.00022157    0.00000000
     atom    3 type  1   force =    -0.00109439    0.00022157    0.00000000
     atom    4 type  1   force =     0.00109439   -0.00022157   -0.00000000
     atom    5 type  2   force =     0.00000000    0.00000000    0.00000000
     atom    6 type  2   force =     0.00000000    0.00000000    0.00000000
     atom    7 type  2   force =     0.00000000    0.00000000   -0.00000000
     atom    8 type  2   force =     0.00000000   -0.00000000    0.00000000
     atom    9 type  3   force =     0.00169792   -0.00085619    0.00000000
     atom   10 type  3   force =    -0.00169792    0.00085619    0.00000000
     atom   11 type  3   force =     0.00169792    0.00085619    0.00000000
     atom   12 type  3   force =    -0.00169792   -0.00085619    0.00000000
     atom   13 type  3   force =    -0.00098837    0.00027300   -0.00062082
     atom   14 type  3   force =     0.00098837   -0.00027300   -0.00062082
     atom   15 type  3   force =    -0.00098837   -0.00027300    0.00062082
     atom   16 type  3   force =     0.00098837    0.00027300    0.00062082
     atom   17 type  3   force =     0.00098837   -0.00027300    0.00062082
     atom   18 type  3   force =    -0.00098837    0.00027300    0.00062082
     atom   19 type  3   force =     0.00098837    0.00027300   -0.00062082
     atom   20 type  3   force =    -0.00098837   -0.00027300   -0.00062082

     Total force =     0.005563     Total SCF correction =     0.000033


     Computing stress (Cartesian axis) and pressure

          total   stress  (Ry/bohr**3)                   (kbar)     P=        0.35
  -0.00000125   0.00000000   0.00000000           -0.18        0.00        0.00
   0.00000000   0.00001313   0.00000000            0.00        1.93        0.00
   0.00000000   0.00000000  -0.00000475            0.00        0.00       -0.70

     Energy error            =      2.3E-04 Ry
     Gradient error          =      1.7E-03 Ry/Bohr
     Cell gradient error     =      1.9E+00 kbar

     number of scf cycles    =  13
     number of bfgs steps    =  12

     enthalpy           old  =   -8165.8521298408 Ry
     enthalpy           new  =   -8165.8523601568 Ry

     CASE: enthalpy          _new < enthalpy          _old

     new trust radius        =       0.0282008485 bohr
     new conv_thr            =       0.0000000017 Ry

     new unit-cell volume =   6335.64167 a.u.^3 (   938.84523 Ang^3 )
     density =      5.09965 g/cm^3

CELL_PARAMETERS (angstrom)
   8.659333928   0.000000000   0.000000000
   0.000000000   8.693575609   0.000000000
   0.000000000   0.000000000  12.471281498

ATOMIC_POSITIONS (crystal)
Cs               0.4936909252        0.4430634268        0.2500000000
Cs               0.5063090748        0.5569365732        0.7500000000
Cs              -0.0063090748        0.0569365732        0.7500000000
Cs               1.0063090748        0.9430634268        0.2500000000
Pb               0.5000000000        0.0000000000       -0.0000000000
Pb               0.5000000000       -0.0000000000        0.5000000000
Pb               0.0000000000        0.5000000000       -0.0000000000
Pb               0.0000000000        0.5000000000        0.5000000000
I                0.5648651260        0.0085593606        0.2500000000
I                0.4351348740        0.9914406394        0.7500000000
I                0.0648651260        0.4914406394        0.7500000000
I                0.9351348740        0.5085593606        0.2500000000
I                0.6962983277        0.3046173787        0.9670784709
I                0.3037016723        0.6953826213        0.4670784709
I                0.1962983277        0.1953826213        0.0329215291
I                0.8037016723        0.8046173787        0.5329215291
I                0.3037016723        0.6953826213        0.0329215291
I                0.6962983277        0.3046173787        0.5329215291
I                0.8037016723        0.8046173787        0.9670784709
I                0.1962983277        0.1953826213        0.4670784709



     Writing config-only to output data dir ./tmp/cspbi3_gamma_s1.save/ :
     XML data file
     NEW-OLD atomic charge density approx. for the potential
     New effective cutoffs (rho, wfc):  497.82   62.18

     total cpu time spent up to now is    16907.6 secs

     Self-consistent Calculation

     iteration #  1     ecut=    60.00 Ry     beta= 0.50
     Davidson diagonalization with overlap
     ethr =  1.00E-06,  avg # of iterations =  4.1

     Threshold (ethr) on eigenvalues was too large:
     Diagonalizing with lowered threshold

     Davidson diagonalization with overlap
     ethr =  1.82E-08,  avg # of iterations =  5.2

     total cpu time spent up to now is    17194.8 secs

     total energy              =   -8165.85247334 Ry
     estimated scf accuracy    <       0.00004640 Ry

     iteration #  2     ecut=    60.00 Ry     beta= 0.50
     Davidson diagonalization with overlap
     ethr =  2.64E-08,  avg # of iterations =  4.0

     total cpu time spent up to now is    17319.8 secs

     total energy              =   -8165.85249369 Ry
     estimated scf accuracy    <       0.00000480 Ry

     iteration #  3     ecut=    60.00 Ry     beta= 0.50
     Davidson diagonalization with overlap
     ethr =  2.73E-09,  avg # of iterations =  5.0

     total cpu time spent up to now is    17422.9 secs

     total energy              =   -8165.85249727 Ry
     estimated scf accuracy    <       0.00000261 Ry

     iteration #  4     ecut=    60.00 Ry     beta= 0.50
     Davidson diagonalization with overlap
     ethr =  1.48E-09,  avg # of iterations =  4.8

     total cpu time spent up to now is    17534.3 secs

     total energy              =   -8165.85249833 Ry
     estimated scf accuracy    <       0.00000075 Ry

     iteration #  5     ecut=    60.00 Ry     beta= 0.50
     Davidson diagonalization with overlap
     ethr =  4.27E-10,  avg # of iterations =  4.2

     total cpu time spent up to now is    17643.9 secs

     total energy              =   -8165.85249855 Ry
     estimated scf accuracy    <       0.00000003 Ry

     iteration #  6     ecut=    60.00 Ry     beta= 0.50
     Davidson diagonalization with overlap
     ethr =  1.76E-11,  avg # of iterations =  6.4

     total cpu time spent up to now is    17809.0 secs

     total energy              =   -8165.85249859 Ry
     estimated scf accuracy    <       0.00000001 Ry

     iteration #  7     ecut=    60.00 Ry     beta= 0.50
     Davidson diagonalization with overlap
     ethr =  5.81E-12,  avg # of iterations =  3.6

     total cpu time spent up to now is    17907.8 secs

     End of self-consistent calculation

          k = 0.0000 0.0000 0.0000 ( 50101 PWs)   bands (ev):

   -17.4659 -17.4653 -17.4645 -17.4640 -13.1855 -13.1786 -13.1786 -13.1783
   -13.1715 -13.1638 -13.1564 -13.1564 -13.1231 -13.1227 -13.1226 -13.1223
   -13.1206 -13.1202 -13.1201 -13.1198 -13.1156 -13.1156 -13.1146 -13.1146
    -8.8981  -8.6990  -8.4356  -8.3861  -8.3700  -8.3661  -8.3539  -8.3535
    -8.3362  -8.1401  -8.1278  -8.1277  -5.1130  -4.5821  -4.3215  -4.3134
    -4.3097  -4.2942  -4.2890  -4.2864  -4.2852  -4.2841  -4.2838  -4.2765
    -4.2533  -4.2529  -4.0173  -3.5312  -0.1404  -0.1251  -0.0590  -0.0277
     0.0470   0.1294   1.0198   1.2653   1.2988   1.3044   1.3392   1.4521
     1.6420   1.7892   1.8365   1.8517   1.9049   1.9222   1.9612   1.9899
     1.9908   1.9950   2.0297   2.0842   2.1106   2.1602   2.2883   2.3008
     2.3268   2.3598   2.4043   2.4578   2.5921   2.6159   2.9323   3.3980

          k = 0.0000 0.0000-0.3439 ( 50118 PWs)   bands (ev):

   -17.4656 -17.4656 -17.4642 -17.4642 -13.1786 -13.1786 -13.1785 -13.1785
   -13.1711 -13.1711 -13.1564 -13.1564 -13.1229 -13.1229 -13.1225 -13.1225
   -13.1203 -13.1203 -13.1200 -13.1200 -13.1156 -13.1156 -13.1146 -13.1146
    -8.8208  -8.8208  -8.4041  -8.4041  -8.3619  -8.3619  -8.3450  -8.3450
    -8.2387  -8.2387  -8.1275  -8.1275  -4.8621  -4.8621  -4.3119  -4.3119
    -4.3058  -4.3058  -4.2865  -4.2865  -4.2733  -4.2733  -4.2687  -4.2687
    -4.2679  -4.2679  -3.8235  -3.8235  -0.0845  -0.0845  -0.0150  -0.0150
     0.6510   0.6510   0.9112   0.9112   1.1373   1.1373   1.4069   1.4069
     1.4305   1.4305   1.8234   1.8234   1.9103   1.9103   2.0055   2.0055
     2.0260   2.0260   2.0549   2.0549   2.1920   2.1920   2.2172   2.2172
     2.3081   2.3081   2.3399   2.3399   2.5287   2.5287   3.0143   3.0143

          k = 0.0000 0.3288 0.0000 ( 50121 PWs)   bands (ev):

   -17.4656 -17.4650 -17.4648 -17.4643 -13.1837 -13.1801 -13.1731 -13.1731
   -13.1696 -13.1657 -13.1620 -13.1620 -13.1229 -13.1228 -13.1225 -13.1224
   -13.1205 -13.1203 -13.1200 -13.1198 -13.1154 -13.1154 -13.1149 -13.1148
    -8.8240  -8.6305  -8.6199  -8.4405  -8.3814  -8.3750  -8.3116  -8.2987
    -8.2248  -8.1910  -8.1853  -8.1557  -4.8764  -4.4224  -4.4090  -4.3152
    -4.3107  -4.2964  -4.2853  -4.2814  -4.2768  -4.2757  -4.2736  -4.2684
    -4.2653  -4.2035  -4.1975  -3.8278  -0.0720   0.0419   0.1763   0.3195
     0.4059   0.4885   0.9956   1.0648   1.2005   1.2152   1.2341   1.3121
     1.3775   1.5088   1.6142   1.6401   1.8848   1.8928   1.9412   1.9577
     1.9892   2.0103   2.0561   2.0938   2.1282   2.1574   2.1677   2.1843
     2.2696   2.2733   2.3755   2.3880   2.5059   2.5737   2.6564   2.8945

          k = 0.0000 0.3288-0.3439 ( 50184 PWs)   bands (ev):

   -17.4653 -17.4653 -17.4646 -17.4646 -13.1766 -13.1766 -13.1732 -13.1732
   -13.1728 -13.1728 -13.1620 -13.1620 -13.1228 -13.1228 -13.1226 -13.1226
   -13.1203 -13.1203 -13.1201 -13.1201 -13.1154 -13.1154 -13.1149 -13.1149
    -8.7471  -8.7471  -8.5652  -8.5652  -8.3062  -8.3062  -8.2704  -8.2704
    -8.2420  -8.2420  -8.1881  -8.1881  -4.6455  -4.6455  -4.3133  -4.3133
    -4.2970  -4.2970  -4.2950  -4.2950  -4.2812  -4.2812  -4.2688  -4.2688
    -4.2539  -4.2539  -4.0878  -4.0878   0.2418   0.2418   0.3906   0.3906
     0.7416   0.7416   0.7842   0.7842   1.0825   1.0825   1.1423   1.1423
     1.4954   1.4954   1.5997   1.5997   1.7392   1.7392   1.7867   1.7867
     1.9259   1.9259   1.9956   1.9956   2.2398   2.2398   2.2768   2.2768
     2.3070   2.3070   2.3222   2.3222   2.5260   2.5260   2.5580   2.5580

          k = 0.3301 0.0000 0.0000 ( 50214 PWs)   bands (ev):

   -17.4656 -17.4650 -17.4648 -17.4643 -13.1837 -13.1801 -13.1731 -13.1731
   -13.1696 -13.1657 -13.1620 -13.1620 -13.1230 -13.1228 -13.1225 -13.1224
   -13.1205 -13.1203 -13.1200 -13.1199 -13.1154 -13.1154 -13.1149 -13.1149
    -8.8253  -8.6346  -8.6233  -8.4525  -8.3814  -8.3752  -8.2998  -8.2852
    -8.2353  -8.1841  -8.1808  -8.1579  -4.8750  -4.4041  -4.4008  -4.3088
    -4.3087  -4.3003  -4.2990  -4.2979  -4.2897  -4.2730  -4.2673  -4.2663
    -4.2635  -4.2043  -4.2039  -3.8340  -0.0714   0.0443   0.2218   0.3463
     0.3528   0.4658   0.9142   1.0797   1.1737   1.2023   1.2259   1.3068
     1.3872   1.5324   1.6199   1.6842   1.8896   1.8991   1.9318   1.9770
     1.9823   2.0070   2.0662   2.0677   2.1336   2.1828   2.1854   2.2370
     2.3000   2.3310   2.3979   2.4337   2.4889   2.5043   2.6503   2.8645

          k = 0.3301 0.0000-0.3439 ( 50200 PWs)   bands (ev):

   -17.4653 -17.4653 -17.4646 -17.4646 -13.1766 -13.1766 -13.1731 -13.1731
   -13.1729 -13.1729 -13.1620 -13.1620 -13.1228 -13.1228 -13.1226 -13.1226
   -13.1203 -13.1203 -13.1201 -13.1201 -13.1154 -13.1154 -13.1149 -13.1149
    -8.7489  -8.7489  -8.5704  -8.5704  -8.2948  -8.2948  -8.2783  -8.2783
    -8.2430  -8.2430  -8.1822  -8.1822  -4.6436  -4.6436  -4.3138  -4.3138
    -4.3076  -4.3076  -4.2877  -4.2877  -4.2701  -4.2701  -4.2658  -4.2658
    -4.2570  -4.2570  -4.1023  -4.1023   0.2831   0.2831   0.3559   0.3559
     0.6954   0.6954   0.8008   0.8008   1.0254   1.0254   1.1470   1.1470
     1.5253   1.5253   1.6042   1.6042   1.7540   1.7540   1.8397   1.8397
     1.9858   1.9858   2.0002   2.0002   2.2009   2.2009   2.2923   2.2923
     2.3026   2.3026   2.3632   2.3632   2.4911   2.4911   2.5260   2.5260

          k = 0.3301 0.3288 0.0000 ( 50152 PWs)   bands (ev):

   -17.4654 -17.4650 -17.4648 -17.4645 -13.1843 -13.1822 -13.1744 -13.1707
   -13.1688 -13.1645 -13.1635 -13.1608 -13.1229 -13.1228 -13.1225 -13.1224
   -13.1204 -13.1204 -13.1200 -13.1199 -13.1153 -13.1152 -13.1150 -13.1150
    -8.7656  -8.6549  -8.5483  -8.3976  -8.3835  -8.3803  -8.3707  -8.3676
    -8.2909  -8.2521  -8.1493  -8.1197  -4.7288  -4.4920  -4.3480  -4.3040
    -4.3004  -4.2927  -4.2915  -4.2832  -4.2771  -4.2761  -4.2728  -4.2696
    -4.2648  -4.2357  -4.1123  -3.9162  -0.0543  -0.0146   0.0003   0.1312
     0.3712   0.5421   0.9316   1.0955   1.1123   1.1129   1.2425   1.5045
     1.5261   1.6074   1.7396   1.8425   1.8575   1.9056   1.9129   1.9470
     1.9863   2.0192   2.0614   2.0803   2.1119   2.1123   2.1571   2.1647
     2.1782   2.2504   2.2910   2.3536   2.5331   2.5989   2.7030   2.9278

          k = 0.3301 0.3288-0.3439 ( 50168 PWs)   bands (ev):

   -17.4651 -17.4651 -17.4647 -17.4647 -13.1785 -13.1785 -13.1759 -13.1759
   -13.1675 -13.1675 -13.1627 -13.1627 -13.1227 -13.1227 -13.1226 -13.1226
   -13.1202 -13.1202 -13.1201 -13.1201 -13.1153 -13.1153 -13.1150 -13.1150
    -8.6865  -8.6865  -8.5766  -8.5766  -8.3714  -8.3714  -8.3028  -8.3028
    -8.2129  -8.2129  -8.1892  -8.1892  -4.5201  -4.5201  -4.3478  -4.3478
    -4.2986  -4.2986  -4.2848  -4.2848  -4.2719  -4.2719  -4.2630  -4.2630
    -4.2395  -4.2395  -4.1573  -4.1573   0.0508   0.0508   0.4287   0.4287
     0.6685   0.6685   0.8033   0.8033   1.0117   1.0117   1.2042   1.2042
     1.4946   1.4946   1.6077   1.6077   1.8084   1.8084   1.9182   1.9182
     2.0086   2.0086   2.0950   2.0950   2.1318   2.1318   2.2225   2.2225
     2.2609   2.2609   2.3397   2.3397   2.4534   2.4534   2.6054   2.6054

     highest occupied level (ev):     3.3980

!    total energy              =   -8165.85249860 Ry
     estimated scf accuracy    <          1.1E-10 Ry

     The total energy is the sum of the following terms:
     one-electron contribution =    -333.68200271 Ry
     hartree contribution      =     254.85306629 Ry
     xc contribution           =    -792.75965182 Ry
     ewald contribution        =    -644.64225401 Ry
     one-center paw contrib.   =   -6649.62165636 Ry

     convergence has been achieved in   7 iterations

     Forces acting on atoms (cartesian axes, Ry/au):

     atom    1 type  1   force =    -0.00109826   -0.00049500    0.00000000
     atom    2 type  1   force =     0.00109826    0.00049500    0.00000000
     atom    3 type  1   force =    -0.00109826    0.00049500    0.00000000
     atom    4 type  1   force =     0.00109826   -0.00049500    0.00000000
     atom    5 type  2   force =    -0.00000000    0.00000000   -0.00000000
     atom    6 type  2   force =     0.00000000    0.00000000    0.00000000
     atom    7 type  2   force =     0.00000000    0.00000000   -0.00000000
     atom    8 type  2   force =     0.00000000    0.00000000    0.00000000
     atom    9 type  3   force =     0.00160911   -0.00067186   -0.00000000
     atom   10 type  3   force =    -0.00160911    0.00067186    0.00000000
     atom   11 type  3   force =     0.00160911    0.00067186    0.00000000
     atom   12 type  3   force =    -0.00160911   -0.00067186    0.00000000
     atom   13 type  3   force =    -0.00156934   -0.00051304   -0.00054266
     atom   14 type  3   force =     0.00156934    0.00051304   -0.00054266
     atom   15 type  3   force =    -0.00156934    0.00051304    0.00054266
     atom   16 type  3   force =     0.00156934   -0.00051304    0.00054266
     atom   17 type  3   force =     0.00156934    0.00051304    0.00054266
     atom   18 type  3   force =    -0.00156934   -0.00051304    0.00054266
     atom   19 type  3   force =     0.00156934   -0.00051304   -0.00054266
     atom   20 type  3   force =    -0.00156934    0.00051304   -0.00054266

     Total force =     0.006491     Total SCF correction =     0.000003


     Computing stress (Cartesian axis) and pressure

          total   stress  (Ry/bohr**3)                   (kbar)     P=        0.06
  -0.00000171   0.00000000   0.00000000           -0.25        0.00        0.00
   0.00000000   0.00000802   0.00000000            0.00        1.18        0.00
   0.00000000   0.00000000  -0.00000507            0.00        0.00       -0.75

     Energy error            =      1.4E-04 Ry
     Gradient error          =      1.6E-03 Ry/Bohr
     Cell gradient error     =      1.2E+00 kbar

     number of scf cycles    =  14
     number of bfgs steps    =  13

     enthalpy           old  =   -8165.8523601568 Ry
     enthalpy           new  =   -8165.8524985987 Ry

     CASE: enthalpy          _new < enthalpy          _old

     new trust radius        =       0.0226273282 bohr
     new conv_thr            =       0.0000000014 Ry

     new unit-cell volume =   6341.25507 a.u.^3 (   939.67705 Ang^3 )
     density =      5.09513 g/cm^3

CELL_PARAMETERS (angstrom)
   8.657362630   0.000000000   0.000000000
   0.000000000   8.705932421   0.000000000
   0.000000000   0.000000000  12.467452453

ATOMIC_POSITIONS (crystal)
Cs               0.4935353524        0.4430754274        0.2500000000
Cs               0.5064646476        0.5569245726        0.7500000000
Cs              -0.0064646476        0.0569245726        0.7500000000
Cs               1.0064646476        0.9430754274        0.2500000000
Pb               0.5000000000        0.0000000000       -0.0000000000
Pb               0.5000000000       -0.0000000000        0.5000000000
Pb               0.0000000000        0.5000000000       -0.0000000000
Pb               0.0000000000        0.5000000000        0.5000000000
I                0.5652137505        0.0083948340        0.2500000000
I                0.4347862495        0.9916051660        0.7500000000
I                0.0652137505        0.4916051660        0.7500000000
I                0.9347862495        0.5083948340        0.2500000000
I                0.6962845998        0.3048642239        0.9669772370
I                0.3037154002        0.6951357761        0.4669772370
I                0.1962845998        0.1951357761        0.0330227630
I                0.8037154002        0.8048642239        0.5330227630
I                0.3037154002        0.6951357761        0.0330227630
I                0.6962845998        0.3048642239        0.5330227630
I                0.8037154002        0.8048642239        0.9669772370
I                0.1962845998        0.1951357761        0.4669772370



     Writing config-only to output data dir ./tmp/cspbi3_gamma_s1.save/ :
     XML data file
     NEW-OLD atomic charge density approx. for the potential
     New effective cutoffs (rho, wfc):  496.43   62.01

     total cpu time spent up to now is    18044.0 secs

     Self-consistent Calculation

     iteration #  1     ecut=    60.00 Ry     beta= 0.50
     Davidson diagonalization with overlap
     ethr =  1.00E-06,  avg # of iterations =  3.0

     Threshold (ethr) on eigenvalues was too large:
     Diagonalizing with lowered threshold

     Davidson diagonalization with overlap
     ethr =  8.63E-09,  avg # of iterations =  6.1

     total cpu time spent up to now is    18376.4 secs

     total energy              =   -8165.85259630 Ry
     estimated scf accuracy    <       0.00002496 Ry

     iteration #  2     ecut=    60.00 Ry     beta= 0.50
     Davidson diagonalization with overlap
     ethr =  1.42E-08,  avg # of iterations =  4.0

     total cpu time spent up to now is    18498.1 secs

     total energy              =   -8165.85260819 Ry
     estimated scf accuracy    <       0.00000459 Ry

     iteration #  3     ecut=    60.00 Ry     beta= 0.50
     Davidson diagonalization with overlap
     ethr =  2.61E-09,  avg # of iterations =  1.1

     total cpu time spent up to now is    18581.9 secs

     total energy              =   -8165.85261010 Ry
     estimated scf accuracy    <       0.00000157 Ry

     iteration #  4     ecut=    60.00 Ry     beta= 0.50
     Davidson diagonalization with overlap
     ethr =  8.90E-10,  avg # of iterations =  4.2

     total cpu time spent up to now is    18691.1 secs

     total energy              =   -8165.85261053 Ry
     estimated scf accuracy    <       0.00000015 Ry

     iteration #  5     ecut=    60.00 Ry     beta= 0.50
     Davidson diagonalization with overlap
     ethr =  8.27E-11,  avg # of iterations =  4.8

     total cpu time spent up to now is    18823.8 secs

     total energy              =   -8165.85261070 Ry
     estimated scf accuracy    <       0.00000021 Ry

     iteration #  6     ecut=    60.00 Ry     beta= 0.50
     Davidson diagonalization with overlap
     ethr =  8.27E-11,  avg # of iterations =  4.0

     total cpu time spent up to now is    18930.8 secs

     total energy              =   -8165.85261071 Ry
     estimated scf accuracy    <       0.00000002 Ry

     iteration #  7     ecut=    60.00 Ry     beta= 0.50
     Davidson diagonalization with overlap
     ethr =  9.33E-12,  avg # of iterations =  4.0

     total cpu time spent up to now is    19047.7 secs

     total energy              =   -8165.85261072 Ry
     estimated scf accuracy    <          5.4E-09 Ry

     iteration #  8     ecut=    60.00 Ry     beta= 0.50
     Davidson diagonalization with overlap
     ethr =  3.08E-12,  avg # of iterations =  1.9

     total cpu time spent up to now is    19138.8 secs

     total energy              =   -8165.85261072 Ry
     estimated scf accuracy    <          2.0E-09 Ry

     iteration #  9     ecut=    60.00 Ry     beta= 0.50
     Davidson diagonalization with overlap
     ethr =  1.12E-12,  avg # of iterations =  2.0

     total cpu time spent up to now is    19233.7 secs

     End of self-consistent calculation

          k = 0.0000 0.0000 0.0000 ( 50101 PWs)   bands (ev):

   -17.4736 -17.4729 -17.4721 -17.4716 -13.1957 -13.1886 -13.1884 -13.1883
   -13.1816 -13.1740 -13.1665 -13.1665 -13.1335 -13.1332 -13.1331 -13.1327
   -13.1309 -13.1306 -13.1304 -13.1302 -13.1262 -13.1261 -13.1252 -13.1251
    -8.9022  -8.7023  -8.4434  -8.3934  -8.3777  -8.3710  -8.3595  -8.3585
    -8.3421  -8.1473  -8.1351  -8.1350  -5.1177  -4.5866  -4.3285  -4.3209
    -4.3170  -4.3016  -4.2965  -4.2940  -4.2926  -4.2922  -4.2917  -4.2838
    -4.2607  -4.2604  -4.0287  -3.5426  -0.1407  -0.1320  -0.0624  -0.0279
     0.0447   0.1218   1.0155   1.2618   1.2936   1.2999   1.3319   1.4425
     1.6343   1.7836   1.8296   1.8444   1.8976   1.9149   1.9532   1.9827
     1.9835   1.9876   2.0216   2.0768   2.1028   2.1549   2.2819   2.2931
     2.3184   2.3508   2.3939   2.4501   2.5833   2.6072   2.9175   3.3841

          k = 0.0000 0.0000-0.3440 ( 50118 PWs)   bands (ev):

   -17.4733 -17.4733 -17.4719 -17.4719 -13.1886 -13.1886 -13.1884 -13.1884
   -13.1813 -13.1813 -13.1665 -13.1665 -13.1333 -13.1333 -13.1329 -13.1329
   -13.1307 -13.1307 -13.1304 -13.1304 -13.1262 -13.1262 -13.1252 -13.1252
    -8.8248  -8.8248  -8.4118  -8.4118  -8.3665  -8.3665  -8.3510  -8.3510
    -8.2458  -8.2458  -8.1348  -8.1348  -4.8666  -4.8666  -4.3194  -4.3194
    -4.3131  -4.3131  -4.2941  -4.2941  -4.2807  -4.2807  -4.2763  -4.2763
    -4.2755  -4.2755  -3.8353  -3.8353  -0.0844  -0.0844  -0.0181  -0.0181
     0.6453   0.6453   0.9034   0.9034   1.1333   1.1333   1.3990   1.3990
     1.4255   1.4255   1.8155   1.8155   1.9028   1.9028   1.9991   1.9991
     2.0181   2.0181   2.0470   2.0470   2.1853   2.1853   2.2100   2.2100
     2.3015   2.3015   2.3303   2.3303   2.5189   2.5189   2.9998   2.9998

          k = 0.0000 0.3284 0.0000 ( 50121 PWs)   bands (ev):

   -17.4732 -17.4726 -17.4725 -17.4720 -13.1939 -13.1903 -13.1830 -13.1830
   -13.1797 -13.1759 -13.1721 -13.1720 -13.1334 -13.1332 -13.1330 -13.1328
   -13.1308 -13.1307 -13.1304 -13.1302 -13.1260 -13.1259 -13.1254 -13.1254
    -8.8286  -8.6363  -8.6237  -8.4456  -8.3890  -8.3826  -8.3168  -8.3039
    -8.2320  -8.1975  -8.1919  -8.1630  -4.8828  -4.4313  -4.4151  -4.3228
    -4.3180  -4.3040  -4.2929  -4.2890  -4.2845  -4.2833  -4.2814  -4.2759
    -4.2728  -4.2105  -4.2059  -3.8367  -0.0789   0.0343   0.1744   0.3183
     0.3995   0.4831   0.9910   1.0584   1.1965   1.2091   1.2294   1.3059
     1.3718   1.5008   1.6066   1.6333   1.8767   1.8873   1.9343   1.9508
     1.9812   2.0012   2.0490   2.0878   2.1200   2.1502   2.1613   2.1775
     2.2621   2.2652   2.3676   2.3806   2.4983   2.5654   2.6494   2.8866

          k = 0.0000 0.3284-0.3440 ( 50184 PWs)   bands (ev):

   -17.4729 -17.4729 -17.4722 -17.4722 -13.1868 -13.1868 -13.1833 -13.1833
   -13.1828 -13.1828 -13.1720 -13.1720 -13.1332 -13.1332 -13.1330 -13.1330
   -13.1306 -13.1306 -13.1305 -13.1305 -13.1259 -13.1259 -13.1254 -13.1254
    -8.7516  -8.7516  -8.5710  -8.5710  -8.3114  -8.3114  -8.2774  -8.2774
    -8.2492  -8.2492  -8.1947  -8.1947  -4.6515  -4.6515  -4.3209  -4.3209
    -4.3046  -4.3046  -4.3026  -4.3026  -4.2888  -4.2888  -4.2765  -4.2765
    -4.2616  -4.2616  -4.0971  -4.0971   0.2401   0.2401   0.3848   0.3848
     0.7354   0.7354   0.7774   0.7774   1.0782   1.0782   1.1361   1.1361
     1.4887   1.4887   1.5945   1.5945   1.7332   1.7332   1.7799   1.7799
     1.9163   1.9163   1.9861   1.9861   2.2329   2.2329   2.2700   2.2700
     2.2990   2.2990   2.3153   2.3153   2.5183   2.5183   2.5504   2.5504

          k = 0.3302 0.0000 0.0000 ( 50214 PWs)   bands (ev):

   -17.4732 -17.4726 -17.4725 -17.4720 -13.1939 -13.1903 -13.1830 -13.1830
   -13.1797 -13.1759 -13.1721 -13.1720 -13.1334 -13.1332 -13.1330 -13.1328
   -13.1308 -13.1307 -13.1304 -13.1302 -13.1260 -13.1259 -13.1255 -13.1254
    -8.8298  -8.6400  -8.6268  -8.4566  -8.3890  -8.3829  -8.3062  -8.2915
    -8.2424  -8.1906  -8.1878  -8.1649  -4.8813  -4.4106  -4.4102  -4.3161
    -4.3157  -4.3076  -4.3063  -4.3054  -4.2973  -4.2805  -4.2748  -4.2739
    -4.2712  -4.2122  -4.2105  -3.8425  -0.0784   0.0366   0.2173   0.3432
     0.3493   0.4641   0.9062   1.0743   1.1668   1.1963   1.2203   1.3027
     1.3799   1.5269   1.6128   1.6787   1.8836   1.8928   1.9265   1.9693
     1.9778   1.9994   2.0595   2.0615   2.1270   2.1755   2.1783   2.2284
     2.2913   2.3231   2.3901   2.4250   2.4783   2.4918   2.6411   2.8534

          k = 0.3302 0.0000-0.3440 ( 50200 PWs)   bands (ev):

   -17.4729 -17.4729 -17.4722 -17.4722 -13.1868 -13.1868 -13.1833 -13.1833
   -13.1829 -13.1829 -13.1720 -13.1720 -13.1332 -13.1332 -13.1330 -13.1330
   -13.1306 -13.1306 -13.1305 -13.1305 -13.1259 -13.1259 -13.1254 -13.1254
    -8.7532  -8.7532  -8.5757  -8.5757  -8.3012  -8.3012  -8.2850  -8.2850
    -8.2498  -8.2498  -8.1890  -8.1890  -4.6496  -4.6496  -4.3214  -4.3214
    -4.3150  -4.3150  -4.2952  -4.2952  -4.2777  -4.2777  -4.2734  -4.2734
    -4.2645  -4.2645  -4.1112  -4.1112   0.2790   0.2790   0.3532   0.3532
     0.6891   0.6891   0.7947   0.7947   1.0177   1.0177   1.1416   1.1416
     1.5205   1.5205   1.5974   1.5974   1.7470   1.7470   1.8329   1.8329
     1.9809   1.9809   1.9941   1.9941   2.1941   2.1941   2.2849   2.2849
     2.2952   2.2952   2.3545   2.3545   2.4798   2.4798   2.5137   2.5137

          k = 0.3302 0.3284 0.0000 ( 50152 PWs)   bands (ev):

   -17.4730 -17.4727 -17.4724 -17.4721 -13.1945 -13.1924 -13.1844 -13.1807
   -13.1788 -13.1746 -13.1736 -13.1709 -13.1334 -13.1333 -13.1329 -13.1329
   -13.1308 -13.1307 -13.1303 -13.1303 -13.1258 -13.1258 -13.1256 -13.1255
    -8.7706  -8.6607  -8.5523  -8.4024  -8.3907  -8.3879  -8.3761  -8.3733
    -8.2971  -8.2582  -8.1564  -8.1270  -4.7363  -4.5011  -4.3552  -4.3114
    -4.3078  -4.3001  -4.2990  -4.2909  -4.2847  -4.2838  -4.2804  -4.2773
    -4.2724  -4.2434  -4.1194  -3.9246  -0.0613  -0.0169  -0.0067   0.1296
     0.3668   0.5387   0.9253   1.0898   1.1067   1.1073   1.2362   1.4986
     1.5207   1.6008   1.7332   1.8352   1.8505   1.8993   1.9067   1.9411
     1.9781   2.0122   2.0546   2.0725   2.1054   2.1063   2.1501   2.1575
     2.1710   2.2428   2.2821   2.3444   2.5236   2.5896   2.6945   2.9171

          k = 0.3302 0.3284-0.3440 ( 50168 PWs)   bands (ev):

   -17.4727 -17.4727 -17.4724 -17.4724 -13.1885 -13.1885 -13.1860 -13.1860
   -13.1776 -13.1776 -13.1728 -13.1728 -13.1331 -13.1331 -13.1331 -13.1331
   -13.1306 -13.1306 -13.1305 -13.1305 -13.1258 -13.1258 -13.1256 -13.1256
    -8.6914  -8.6914  -8.5825  -8.5825  -8.3767  -8.3767  -8.3091  -8.3091
    -8.2198  -8.2198  -8.1961  -8.1961  -4.5271  -4.5271  -4.3556  -4.3556
    -4.3061  -4.3061  -4.2923  -4.2923  -4.2796  -4.2796  -4.2706  -4.2706
    -4.2472  -4.2472  -4.1659  -4.1659   0.0490   0.0490   0.4247   0.4247
     0.6625   0.6625   0.7970   0.7970   1.0055   1.0055   1.1983   1.1983
     1.4889   1.4889   1.6020   1.6020   1.8020   1.8020   1.9107   1.9107
     2.0013   2.0013   2.0881   2.0881   2.1246   2.1246   2.2153   2.2153
     2.2532   2.2532   2.3314   2.3314   2.4447   2.4447   2.5944   2.5944

     highest occupied level (ev):     3.3841

!    total energy              =   -8165.85261072 Ry
     estimated scf accuracy    <          3.7E-10 Ry

     The total energy is the sum of the following terms:
     one-electron contribution =    -333.84142181 Ry
     hartree contribution      =     254.87851155 Ry
     xc contribution           =    -792.75257974 Ry
     ewald contribution        =    -644.51585463 Ry
     one-center paw contrib.   =   -6649.62126609 Ry

     convergence has been achieved in   9 iterations

     Forces acting on atoms (cartesian axes, Ry/au):

     atom    1 type  1   force =    -0.00109060   -0.00069783   -0.00000000
     atom    2 type  1   force =     0.00109060    0.00069783    0.00000000
     atom    3 type  1   force =    -0.00109060    0.00069783    0.00000000
     atom    4 type  1   force =     0.00109060   -0.00069783   -0.00000000
     atom    5 type  2   force =     0.00000000    0.00000000    0.00000000
     atom    6 type  2   force =    -0.00000000    0.00000000    0.00000000
     atom    7 type  2   force =     0.00000000    0.00000000   -0.00000000
     atom    8 type  2   force =     0.00000000   -0.00000000    0.00000000
     atom    9 type  3   force =     0.00154094   -0.00051770    0.00000000
     atom   10 type  3   force =    -0.00154094    0.00051770    0.00000000
     atom   11 type  3   force =     0.00154094    0.00051770    0.00000000
     atom   12 type  3   force =    -0.00154094   -0.00051770   -0.00000000
     atom   13 type  3   force =    -0.00177663   -0.00090035   -0.00048365
     atom   14 type  3   force =     0.00177663    0.00090035   -0.00048365
     atom   15 type  3   force =    -0.00177663    0.00090035    0.00048365
     atom   16 type  3   force =     0.00177663   -0.00090035    0.00048365
     atom   17 type  3   force =     0.00177663    0.00090035    0.00048365
     atom   18 type  3   force =    -0.00177663   -0.00090035    0.00048365
     atom   19 type  3   force =     0.00177663   -0.00090035   -0.00048365
     atom   20 type  3   force =    -0.00177663    0.00090035   -0.00048365

     Total force =     0.007133     Total SCF correction =     0.000003


     Computing stress (Cartesian axis) and pressure

          total   stress  (Ry/bohr**3)                   (kbar)     P=       -0.15
  -0.00000256   0.00000000   0.00000000           -0.38        0.00        0.00
   0.00000000   0.00000452   0.00000000            0.00        0.66        0.00
   0.00000000   0.00000000  -0.00000495            0.00        0.00       -0.73

     Energy error            =      1.1E-04 Ry
     Gradient error          =      1.8E-03 Ry/Bohr
     Cell gradient error     =      7.3E-01 kbar

     number of scf cycles    =  15
     number of bfgs steps    =  14

     enthalpy           old  =   -8165.8524985987 Ry
     enthalpy           new  =   -8165.8526107188 Ry

     CASE: enthalpy          _new < enthalpy          _old

     new trust radius        =       0.0339078292 bohr
     new conv_thr            =       0.0000000011 Ry

     new unit-cell volume =   6348.63675 a.u.^3 (   940.77090 Ang^3 )
     density =      5.08921 g/cm^3

CELL_PARAMETERS (angstrom)
   8.654984765   0.000000000   0.000000000
   0.000000000   8.724467637   0.000000000
   0.000000000   0.000000000  12.458869413

ATOMIC_POSITIONS (crystal)
Cs               0.4929604902        0.4427146118        0.2500000000
Cs               0.5070395098        0.5572853882        0.7500000000
Cs              -0.0070395098        0.0572853882        0.7500000000
Cs               1.0070395098        0.9427146118        0.2500000000
Pb               0.5000000000        0.0000000000       -0.0000000000
Pb               0.5000000000       -0.0000000000        0.5000000000
Pb               0.0000000000        0.5000000000       -0.0000000000
Pb               0.0000000000        0.5000000000        0.5000000000
I                0.5659789175        0.0082191151        0.2500000000
I                0.4340210825        0.9917808849        0.7500000000
I                0.0659789175        0.4917808849        0.7500000000
I                0.9340210825        0.5082191151        0.2500000000
I                0.6960702897        0.3051650288        0.9668358956
I                0.3039297103        0.6948349712        0.4668358956
I                0.1960702897        0.1948349712        0.0331641044
I                0.8039297103        0.8051650288        0.5331641044
I                0.3039297103        0.6948349712        0.0331641044
I                0.6960702897        0.3051650288        0.5331641044
I                0.8039297103        0.8051650288        0.9668358956
I                0.1960702897        0.1948349712        0.4668358956



     Writing config-only to output data dir ./tmp/cspbi3_gamma_s1.save/ :
     XML data file
     NEW-OLD atomic charge density approx. for the potential
     New effective cutoffs (rho, wfc):  494.35   61.75

     total cpu time spent up to now is    19370.4 secs

     Self-consistent Calculation

     iteration #  1     ecut=    60.00 Ry     beta= 0.50
     Davidson diagonalization with overlap
     ethr =  1.00E-06,  avg # of iterations =  4.0

     Threshold (ethr) on eigenvalues was too large:
     Diagonalizing with lowered threshold

     Davidson diagonalization with overlap
     ethr =  1.75E-08,  avg # of iterations =  5.9

     total cpu time spent up to now is    19678.8 secs

     total energy              =   -8165.85279712 Ry
     estimated scf accuracy    <       0.00004320 Ry

     iteration #  2     ecut=    60.00 Ry     beta= 0.50
     Davidson diagonalization with overlap
     ethr =  2.45E-08,  avg # of iterations =  4.2

     total cpu time spent up to now is    19803.5 secs

     total energy              =   -8165.85282136 Ry
     estimated scf accuracy    <       0.00000741 Ry

     iteration #  3     ecut=    60.00 Ry     beta= 0.50
     Davidson diagonalization with overlap
     ethr =  4.21E-09,  avg # of iterations =  1.6

     total cpu time spent up to now is    19887.1 secs

     total energy              =   -8165.85282555 Ry
     estimated scf accuracy    <       0.00000260 Ry

     iteration #  4     ecut=    60.00 Ry     beta= 0.50
     Davidson diagonalization with overlap
     ethr =  1.47E-09,  avg # of iterations =  4.0

     total cpu time spent up to now is    19995.3 secs

     total energy              =   -8165.85282640 Ry
     estimated scf accuracy    <       0.00000024 Ry

     iteration #  5     ecut=    60.00 Ry     beta= 0.50
     Davidson diagonalization with overlap
     ethr =  1.35E-10,  avg # of iterations =  4.5

     total cpu time spent up to now is    20115.4 secs

     total energy              =   -8165.85282667 Ry
     estimated scf accuracy    <       0.00000034 Ry

     iteration #  6     ecut=    60.00 Ry     beta= 0.50
     Davidson diagonalization with overlap
     ethr =  1.35E-10,  avg # of iterations =  2.6

     total cpu time spent up to now is    20208.6 secs

     total energy              =   -8165.85282673 Ry
     estimated scf accuracy    <       0.00000004 Ry

     iteration #  7     ecut=    60.00 Ry     beta= 0.50
     Davidson diagonalization with overlap
     ethr =  1.99E-11,  avg # of iterations =  4.0

     total cpu time spent up to now is    20305.4 secs

     total energy              =   -8165.85282675 Ry
     estimated scf accuracy    <          5.6E-09 Ry

     iteration #  8     ecut=    60.00 Ry     beta= 0.50
     Davidson diagonalization with overlap
     ethr =  3.21E-12,  avg # of iterations =  3.5

     total cpu time spent up to now is    20412.6 secs

     End of self-consistent calculation

          k = 0.0000 0.0000 0.0000 ( 50101 PWs)   bands (ev):

   -17.4828 -17.4822 -17.4814 -17.4809 -13.2098 -13.2028 -13.2022 -13.2021
   -13.1957 -13.1883 -13.1807 -13.1807 -13.1481 -13.1478 -13.1476 -13.1474
   -13.1453 -13.1452 -13.1449 -13.1447 -13.1410 -13.1410 -13.1400 -13.1400
    -8.9073  -8.7060  -8.4541  -8.4041  -8.3883  -8.3768  -8.3675  -8.3640
    -8.3499  -8.1572  -8.1451  -8.1451  -5.1237  -4.5917  -4.3372  -4.3302
    -4.3259  -4.3107  -4.3059  -4.3036  -4.3029  -4.3018  -4.3012  -4.2925
    -4.2695  -4.2695  -4.0451  -3.5587  -0.1415  -0.1395  -0.0662  -0.0269
     0.0428   0.1121   1.0100   1.2579   1.2870   1.2941   1.3221   1.4287
     1.6225   1.7760   1.8203   1.8352   1.8879   1.9059   1.9436   1.9732
     1.9735   1.9772   2.0096   2.0659   2.0905   2.1480   2.2738   2.2826
     2.3068   2.3381   2.3785   2.4389   2.5715   2.5952   2.8958   3.3641

          k = 0.0000 0.0000-0.3442 ( 50118 PWs)   bands (ev):

   -17.4825 -17.4825 -17.4811 -17.4811 -13.2027 -13.2027 -13.2022 -13.2022
   -13.1955 -13.1955 -13.1807 -13.1807 -13.1479 -13.1479 -13.1476 -13.1476
   -13.1451 -13.1451 -13.1449 -13.1449 -13.1410 -13.1410 -13.1400 -13.1400
    -8.8296  -8.8296  -8.4225  -8.4225  -8.3722  -8.3722  -8.3589  -8.3589
    -8.2556  -8.2556  -8.1448  -8.1448  -4.8720  -4.8720  -4.3286  -4.3286
    -4.3220  -4.3220  -4.3035  -4.3035  -4.2897  -4.2897  -4.2855  -4.2855
    -4.2848  -4.2848  -3.8523  -3.8523  -0.0826  -0.0826  -0.0214  -0.0214
     0.6376   0.6376   0.8925   0.8925   1.1285   1.1285   1.3884   1.3884
     1.4192   1.4192   1.8050   1.8050   1.8927   1.8927   1.9906   1.9906
     2.0071   2.0071   2.0357   2.0357   2.1770   2.1770   2.1990   2.1990
     2.2928   2.2928   2.3166   2.3166   2.5052   2.5052   2.9785   2.9785

          k = 0.0000 0.3277 0.0000 ( 50121 PWs)   bands (ev):

   -17.4825 -17.4818 -17.4817 -17.4812 -13.2080 -13.2045 -13.1969 -13.1969
   -13.1938 -13.1901 -13.1861 -13.1861 -13.1480 -13.1479 -13.1476 -13.1474
   -13.1453 -13.1452 -13.1449 -13.1448 -13.1408 -13.1407 -13.1403 -13.1403
    -8.8345  -8.6441  -8.6282  -8.4521  -8.3997  -8.3932  -8.3235  -8.3105
    -8.2419  -8.2064  -8.2007  -8.1729  -4.8914  -4.4438  -4.4231  -4.3322
    -4.3270  -4.3133  -4.3024  -4.2983  -4.2939  -4.2927  -4.2908  -4.2852
    -4.2820  -4.2189  -4.2167  -3.8488  -0.0884   0.0235   0.1727   0.3184
     0.3916   0.4765   0.9839   1.0495   1.1903   1.2010   1.2231   1.2973
     1.3646   1.4907   1.5971   1.6247   1.8650   1.8799   1.9243   1.9420
     1.9698   1.9889   2.0398   2.0803   2.1090   2.1414   2.1529   2.1686
     2.2523   2.2541   2.3559   2.3711   2.4871   2.5545   2.6399   2.8752

          k = 0.0000 0.3277-0.3442 ( 50184 PWs)   bands (ev):

   -17.4821 -17.4821 -17.4815 -17.4815 -13.2009 -13.2009 -13.1974 -13.1974
   -13.1968 -13.1968 -13.1861 -13.1861 -13.1478 -13.1478 -13.1476 -13.1476
   -13.1451 -13.1451 -13.1450 -13.1450 -13.1408 -13.1408 -13.1403 -13.1403
    -8.7573  -8.7573  -8.5788  -8.5788  -8.3181  -8.3181  -8.2870  -8.2870
    -8.2590  -8.2590  -8.2037  -8.2037  -4.6593  -4.6593  -4.3306  -4.3306
    -4.3140  -4.3140  -4.3121  -4.3121  -4.2981  -4.2981  -4.2858  -4.2858
    -4.2709  -4.2709  -4.1099  -4.1099   0.2390   0.2390   0.3776   0.3776
     0.7273   0.7273   0.7680   0.7680   1.0716   1.0716   1.1277   1.1277
     1.4801   1.4801   1.5881   1.5881   1.7262   1.7262   1.7703   1.7703
     1.9028   1.9028   1.9734   1.9734   2.2236   2.2236   2.2606   2.2606
     2.2880   2.2880   2.3063   2.3063   2.5080   2.5080   2.5394   2.5394

          k = 0.3303 0.0000 0.0000 ( 50214 PWs)   bands (ev):

   -17.4825 -17.4819 -17.4817 -17.4812 -13.2080 -13.2045 -13.1969 -13.1969
   -13.1938 -13.1901 -13.1861 -13.1861 -13.1480 -13.1479 -13.1476 -13.1474
   -13.1453 -13.1452 -13.1449 -13.1448 -13.1408 -13.1408 -13.1403 -13.1403
    -8.8354  -8.6472  -8.6309  -8.4615  -8.3997  -8.3935  -8.3148  -8.2998
    -8.2517  -8.1997  -8.1972  -8.1745  -4.8898  -4.4234  -4.4187  -4.3254
    -4.3240  -4.3164  -4.3153  -4.3148  -4.3067  -4.2897  -4.2839  -4.2832
    -4.2806  -4.2222  -4.2189  -3.8543  -0.0880   0.0258   0.2117   0.3396
     0.3455   0.4632   0.8959   1.0676   1.1586   1.1886   1.2130   1.2985
     1.3701   1.5184   1.6036   1.6705   1.8750   1.8843   1.9190   1.9583
     1.9720   1.9888   2.0502   2.0525   2.1178   2.1656   2.1692   2.2152
     2.2787   2.3117   2.3785   2.4126   2.4642   2.4750   2.6289   2.8387

          k = 0.3303 0.0000-0.3442 ( 50200 PWs)   bands (ev):

   -17.4821 -17.4821 -17.4815 -17.4815 -13.2009 -13.2009 -13.1974 -13.1974
   -13.1968 -13.1968 -13.1861 -13.1861 -13.1478 -13.1478 -13.1476 -13.1476
   -13.1451 -13.1451 -13.1450 -13.1450 -13.1408 -13.1408 -13.1403 -13.1403
    -8.7586  -8.7586  -8.5826  -8.5826  -8.3098  -8.3098  -8.2941  -8.2941
    -8.2592  -8.2592  -8.1983  -8.1983  -4.6573  -4.6573  -4.3307  -4.3307
    -4.3242  -4.3242  -4.3045  -4.3045  -4.2869  -4.2869  -4.2826  -4.2826
    -4.2738  -4.2738  -4.1236  -4.1236   0.2741   0.2741   0.3505   0.3505
     0.6802   0.6802   0.7868   0.7868   1.0079   1.0079   1.1349   1.1349
     1.5144   1.5144   1.5888   1.5888   1.7376   1.7376   1.8247   1.8247
     1.9726   1.9726   1.9846   1.9846   2.1844   2.1844   2.2751   2.2751
     2.2850   2.2850   2.3418   2.3418   2.4640   2.4640   2.4974   2.4974

          k = 0.3303 0.3277 0.0000 ( 50152 PWs)   bands (ev):

   -17.4823 -17.4819 -17.4817 -17.4813 -13.2086 -13.2065 -13.1983 -13.1947
   -13.1928 -13.1888 -13.1877 -13.1851 -13.1480 -13.1479 -13.1475 -13.1475
   -13.1453 -13.1452 -13.1448 -13.1448 -13.1407 -13.1406 -13.1404 -13.1404
    -8.7771  -8.6685  -8.5573  -8.4085  -8.4007  -8.3985  -8.3830  -8.3807
    -8.3053  -8.2664  -8.1660  -8.1369  -4.7467  -4.5138  -4.3641  -4.3206
    -4.3170  -4.3094  -4.3082  -4.3003  -4.2941  -4.2933  -4.2897  -4.2868
    -4.2815  -4.2530  -4.1284  -3.9358  -0.0710  -0.0186  -0.0164   0.1286
     0.3618   0.5349   0.9165   1.0824   1.0995   1.0998   1.2275   1.4911
     1.5139   1.5925   1.7240   1.8252   1.8412   1.8906   1.8981   1.9331
     1.9660   2.0033   2.0456   2.0621   2.0965   2.0978   2.1410   2.1478
     2.1615   2.2329   2.2694   2.3315   2.5104   2.5767   2.6831   2.9020

          k = 0.3303 0.3277-0.3442 ( 50168 PWs)   bands (ev):

   -17.4820 -17.4820 -17.4816 -17.4816 -13.2026 -13.2026 -13.2001 -13.2001
   -13.1917 -13.1917 -13.1869 -13.1869 -13.1478 -13.1478 -13.1477 -13.1477
   -13.1451 -13.1451 -13.1450 -13.1450 -13.1407 -13.1407 -13.1404 -13.1404
    -8.6977  -8.6977  -8.5904  -8.5904  -8.3835  -8.3835  -8.3176  -8.3176
    -8.2291  -8.2291  -8.2054  -8.2054  -4.5365  -4.5365  -4.3659  -4.3659
    -4.3154  -4.3154  -4.3015  -4.3015  -4.2889  -4.2889  -4.2798  -4.2798
    -4.2568  -4.2568  -4.1774  -4.1774   0.0478   0.0478   0.4203   0.4203
     0.6539   0.6539   0.7882   0.7882   0.9970   0.9970   1.1905   1.1905
     1.4817   1.4817   1.5949   1.5949   1.7936   1.7936   1.9000   1.9000
     1.9913   1.9913   2.0788   2.0788   2.1153   2.1153   2.2055   2.2055
     2.2429   2.2429   2.3197   2.3197   2.4332   2.4332   2.5787   2.5787

     highest occupied level (ev):     3.3641

!    total energy              =   -8165.85282675 Ry
     estimated scf accuracy    <          7.5E-10 Ry

     The total energy is the sum of the following terms:
     one-electron contribution =    -334.01659502 Ry
     hartree contribution      =     254.89299530 Ry
     xc contribution           =    -792.74253988 Ry
     ewald contribution        =    -644.36599930 Ry
     one-center paw contrib.   =   -6649.62068785 Ry

     convergence has been achieved in   8 iterations

     Forces acting on atoms (cartesian axes, Ry/au):

     atom    1 type  1   force =    -0.00104522   -0.00093263   -0.00000000
     atom    2 type  1   force =     0.00104522    0.00093263    0.00000000
     atom    3 type  1   force =    -0.00104522    0.00093263    0.00000000
     atom    4 type  1   force =     0.00104522   -0.00093263    0.00000000
     atom    5 type  2   force =    -0.00000000    0.00000000   -0.00000000
     atom    6 type  2   force =     0.00000000    0.00000000    0.00000000
     atom    7 type  2   force =     0.00000000   -0.00000000   -0.00000000
     atom    8 type  2   force =    -0.00000000    0.00000000    0.00000000
     atom    9 type  3   force =     0.00144903   -0.00033278   -0.00000000
     atom   10 type  3   force =    -0.00144903    0.00033278    0.00000000
     atom   11 type  3   force =     0.00144903    0.00033278    0.00000000
     atom   12 type  3   force =    -0.00144903   -0.00033278    0.00000000
     atom   13 type  3   force =    -0.00185759   -0.00127184   -0.00042075
     atom   14 type  3   force =     0.00185759    0.00127184   -0.00042075
     atom   15 type  3   force =    -0.00185759    0.00127184    0.00042075
     atom   16 type  3   force =     0.00185759   -0.00127184    0.00042075
     atom   17 type  3   force =     0.00185759    0.00127184    0.00042075
     atom   18 type  3   force =    -0.00185759   -0.00127184    0.00042075
     atom   19 type  3   force =     0.00185759   -0.00127184   -0.00042075
     atom   20 type  3   force =    -0.00185759    0.00127184   -0.00042075

     Total force =     0.007659     Total SCF correction =     0.000012


     Computing stress (Cartesian axis) and pressure

          total   stress  (Ry/bohr**3)                   (kbar)     P=       -0.45
  -0.00000457   0.00000000   0.00000000           -0.67        0.00        0.00
   0.00000000  -0.00000007   0.00000000            0.00       -0.01        0.00
   0.00000000   0.00000000  -0.00000445            0.00        0.00       -0.65

     Energy error            =      2.2E-04 Ry
     Gradient error          =      1.9E-03 Ry/Bohr
     Cell gradient error     =      6.7E-01 kbar

     number of scf cycles    =  16
     number of bfgs steps    =  15

     enthalpy           old  =   -8165.8526107188 Ry
     enthalpy           new  =   -8165.8528267513 Ry

     CASE: enthalpy          _new < enthalpy          _old

     new trust radius        =       0.0507832195 bohr
     new conv_thr            =       0.0000000019 Ry

     new unit-cell volume =   6358.01231 a.u.^3 (   942.16022 Ang^3 )
     density =      5.08170 g/cm^3

CELL_PARAMETERS (angstrom)
   8.652073770   0.000000000   0.000000000
   0.000000000   8.752270463   0.000000000
   0.000000000   0.000000000  12.441817310

ATOMIC_POSITIONS (crystal)
Cs               0.4915255958        0.4415200739        0.2500000000
Cs               0.5084744042        0.5584799261        0.7500000000
Cs              -0.0084744042        0.0584799261        0.7500000000
Cs               1.0084744042        0.9415200739        0.2500000000
Pb               0.5000000000        0.0000000000       -0.0000000000
Pb               0.5000000000       -0.0000000000        0.5000000000
Pb               0.0000000000        0.5000000000       -0.0000000000
Pb              -0.0000000000        0.5000000000        0.5000000000
I                0.5675262794        0.0080927284        0.2500000000
I                0.4324737206        0.9919072716        0.7500000000
I                0.0675262794        0.4919072716        0.7500000000
I                0.9324737206        0.5080927284        0.2500000000
I                0.6954931996        0.3055549688        0.9666466648
I                0.3045068004        0.6944450312        0.4666466648
I                0.1954931996        0.1944450312        0.0333533352
I                0.8045068004        0.8055549688        0.5333533352
I                0.3045068004        0.6944450312        0.0333533352
I                0.6954931996        0.3055549688        0.5333533352
I                0.8045068004        0.8055549688        0.9666466648
I                0.1954931996        0.1944450312        0.4666466648



     Writing config-only to output data dir ./tmp/cspbi3_gamma_s1.save/ :
     XML data file
     NEW-OLD atomic charge density approx. for the potential
     New effective cutoffs (rho, wfc):  491.27   61.38

     total cpu time spent up to now is    20549.1 secs

     Self-consistent Calculation

     iteration #  1     ecut=    60.00 Ry     beta= 0.50
     Davidson diagonalization with overlap
     ethr =  1.00E-06,  avg # of iterations =  5.9

     Threshold (ethr) on eigenvalues was too large:
     Diagonalizing with lowered threshold

     Davidson diagonalization with overlap
     ethr =  3.67E-08,  avg # of iterations =  5.2

     total cpu time spent up to now is    20887.4 secs

     total energy              =   -8165.85313008 Ry
     estimated scf accuracy    <       0.00008265 Ry

     iteration #  2     ecut=    60.00 Ry     beta= 0.50
     Davidson diagonalization with overlap
     ethr =  4.70E-08,  avg # of iterations =  4.8

     total cpu time spent up to now is    21012.3 secs

     total energy              =   -8165.85319193 Ry
     estimated scf accuracy    <       0.00001482 Ry

     iteration #  3     ecut=    60.00 Ry     beta= 0.50
     Davidson diagonalization with overlap
     ethr =  8.42E-09,  avg # of iterations =  2.8

     total cpu time spent up to now is    21101.5 secs

     total energy              =   -8165.85320382 Ry
     estimated scf accuracy    <       0.00000519 Ry

     iteration #  4     ecut=    60.00 Ry     beta= 0.50
     Davidson diagonalization with overlap
     ethr =  2.95E-09,  avg # of iterations =  2.8

     total cpu time spent up to now is    21207.7 secs

     total energy              =   -8165.85320646 Ry
     estimated scf accuracy    <       0.00000026 Ry

     iteration #  5     ecut=    60.00 Ry     beta= 0.50
     Davidson diagonalization with overlap
     ethr =  1.47E-10,  avg # of iterations =  5.8

     total cpu time spent up to now is    21368.7 secs

     total energy              =   -8165.85320720 Ry
     estimated scf accuracy    <       0.00000036 Ry

     iteration #  6     ecut=    60.00 Ry     beta= 0.50
     Davidson diagonalization with overlap
     ethr =  1.47E-10,  avg # of iterations =  4.0

     total cpu time spent up to now is    21478.7 secs

     total energy              =   -8165.85320732 Ry
     estimated scf accuracy    <       0.00000009 Ry

     iteration #  7     ecut=    60.00 Ry     beta= 0.50
     Davidson diagonalization with overlap
     ethr =  5.29E-11,  avg # of iterations =  3.5

     total cpu time spent up to now is    21577.6 secs

     total energy              =   -8165.85320736 Ry
     estimated scf accuracy    <          7.4E-09 Ry

     iteration #  8     ecut=    60.00 Ry     beta= 0.50
     Davidson diagonalization with overlap
     ethr =  4.19E-12,  avg # of iterations =  3.8

     total cpu time spent up to now is    21682.3 secs

     total energy              =   -8165.85320737 Ry
     estimated scf accuracy    <          5.6E-09 Ry

     iteration #  9     ecut=    60.00 Ry     beta= 0.50
     Davidson diagonalization with overlap
     ethr =  3.17E-12,  avg # of iterations =  2.0

     total cpu time spent up to now is    21773.6 secs

     End of self-consistent calculation

          k = 0.0000 0.0000 0.0000 ( 50101 PWs)   bands (ev):

   -17.4931 -17.4924 -17.4917 -17.4912 -13.2292 -13.2224 -13.2211 -13.2211
   -13.2149 -13.2078 -13.2003 -13.2003 -13.1682 -13.1680 -13.1677 -13.1675
   -13.1653 -13.1652 -13.1649 -13.1648 -13.1616 -13.1615 -13.1607 -13.1606
    -8.9133  -8.7097  -8.4687  -8.4190  -8.4028  -8.3832  -8.3779  -8.3706
    -8.3600  -8.1705  -8.1588  -8.1586  -5.1309  -4.5970  -4.3471  -4.3409
    -4.3363  -4.3213  -4.3170  -4.3161  -4.3150  -4.3124  -4.3122  -4.3021
    -4.2797  -4.2793  -4.0680  -3.5814  -0.1542  -0.1355  -0.0698  -0.0250
     0.0422   0.1015   1.0028   1.2543   1.2792   1.2873   1.3092   1.4085
     1.6052   1.7654   1.8080   1.8245   1.8752   1.8950   1.9327   1.9602
     1.9608   1.9626   1.9920   2.0496   2.0717   2.1390   2.2637   2.2690
     2.2910   2.3210   2.3556   2.4228   2.5561   2.5789   2.8640   3.3351

          k = 0.0000 0.0000-0.3447 ( 50118 PWs)   bands (ev):

   -17.4928 -17.4928 -17.4914 -17.4914 -13.2221 -13.2221 -13.2211 -13.2211
   -13.2151 -13.2151 -13.2003 -13.2003 -13.1680 -13.1680 -13.1678 -13.1678
   -13.1651 -13.1651 -13.1650 -13.1650 -13.1616 -13.1616 -13.1606 -13.1606
    -8.8353  -8.8353  -8.4370  -8.4370  -8.3790  -8.3790  -8.3692  -8.3692
    -8.2686  -8.2686  -8.1584  -8.1584  -4.8781  -4.8781  -4.3394  -4.3394
    -4.3324  -4.3324  -4.3146  -4.3146  -4.3000  -4.3000  -4.2960  -4.2960
    -4.2951  -4.2951  -3.8764  -3.8764  -0.0774  -0.0774  -0.0242  -0.0242
     0.6273   0.6273   0.8773   0.8773   1.1231   1.1231   1.3743   1.3743
     1.4118   1.4118   1.7914   1.7914   1.8795   1.8795   1.9795   1.9795
     1.9912   1.9912   2.0203   2.0203   2.1670   2.1670   2.1824   2.1824
     2.2818   2.2818   2.2974   2.2974   2.4864   2.4864   2.9477   2.9477

          k = 0.0000 0.3266 0.0000 ( 50121 PWs)   bands (ev):

   -17.4927 -17.4921 -17.4920 -17.4915 -13.2275 -13.2241 -13.2160 -13.2159
   -13.2131 -13.2095 -13.2055 -13.2055 -13.1681 -13.1680 -13.1677 -13.1676
   -13.1653 -13.1653 -13.1649 -13.1648 -13.1614 -13.1613 -13.1609 -13.1609
    -8.8416  -8.6544  -8.6332  -8.4603  -8.4143  -8.4075  -8.3317  -8.3186
    -8.2549  -8.2183  -8.2123  -8.1861  -4.9027  -4.4612  -4.4329  -4.3433
    -4.3374  -4.3242  -4.3136  -4.3091  -4.3045  -4.3035  -4.3015  -4.2957
    -4.2927  -4.2299  -4.2281  -3.8650  -0.1012   0.0082   0.1721   0.3217
     0.3823   0.4689   0.9737   1.0372   1.1814   1.1905   1.2150   1.2855
     1.3556   1.4782   1.5858   1.6140   1.8483   1.8698   1.9096   1.9312
     1.9537   1.9723   2.0282   2.0713   2.0942   2.1311   2.1420   2.1579
     2.2386   2.2396   2.3384   2.3592   2.4709   2.5407   2.6271   2.8589

          k = 0.0000 0.3266-0.3447 ( 50184 PWs)   bands (ev):

   -17.4924 -17.4924 -17.4918 -17.4918 -13.2203 -13.2203 -13.2169 -13.2169
   -13.2159 -13.2159 -13.2055 -13.2055 -13.1679 -13.1679 -13.1678 -13.1678
   -13.1651 -13.1651 -13.1651 -13.1651 -13.1614 -13.1614 -13.1609 -13.1609
    -8.7642  -8.7642  -8.5890  -8.5890  -8.3266  -8.3266  -8.2997  -8.2997
    -8.2717  -8.2717  -8.2154  -8.2154  -4.6692  -4.6692  -4.3422  -4.3422
    -4.3249  -4.3249  -4.3234  -4.3234  -4.3088  -4.3088  -4.2964  -4.2964
    -4.2814  -4.2814  -4.1269  -4.1269   0.2396   0.2396   0.3691   0.3691
     0.7167   0.7167   0.7550   0.7550   1.0620   1.0620   1.1167   1.1167
     1.4694   1.4694   1.5806   1.5806   1.7189   1.7189   1.7571   1.7571
     1.8838   1.8838   1.9566   1.9566   2.2108   2.2108   2.2475   2.2475
     2.2738   2.2738   2.2950   2.2950   2.4945   2.4945   2.5244   2.5244

          k = 0.3304 0.0000 0.0000 ( 50214 PWs)   bands (ev):

   -17.4927 -17.4922 -17.4920 -17.4915 -13.2275 -13.2241 -13.2160 -13.2159
   -13.2131 -13.2095 -13.2055 -13.2055 -13.1681 -13.1680 -13.1677 -13.1676
   -13.1653 -13.1653 -13.1649 -13.1648 -13.1614 -13.1613 -13.1609 -13.1609
    -8.8422  -8.6562  -8.6351  -8.4672  -8.4142  -8.4080  -8.3261  -8.3107
    -8.2637  -8.2122  -8.2098  -8.1874  -4.9007  -4.4413  -4.4279  -4.3362
    -4.3333  -4.3263  -4.3258  -4.3254  -4.3178  -4.3001  -4.2944  -4.2939
    -4.2911  -4.2343  -4.2289  -3.8704  -0.1009   0.0109   0.2053   0.3361
     0.3420   0.4645   0.8827   1.0595   1.1494   1.1790   1.2043   1.2950
     1.3575   1.5061   1.5922   1.6584   1.8626   1.8730   1.9088   1.9427
     1.9644   1.9742   2.0373   2.0396   2.1052   2.1527   2.1574   2.1959
     2.2609   2.2958   2.3616   2.3949   2.4461   2.4528   2.6135   2.8193

          k = 0.3304 0.0000-0.3447 ( 50200 PWs)   bands (ev):

   -17.4924 -17.4924 -17.4918 -17.4918 -13.2203 -13.2203 -13.2169 -13.2169
   -13.2159 -13.2159 -13.2055 -13.2055 -13.1679 -13.1679 -13.1678 -13.1678
   -13.1651 -13.1651 -13.1650 -13.1650 -13.1614 -13.1614 -13.1609 -13.1609
    -8.7651  -8.7651  -8.5914  -8.5914  -8.3210  -8.3210  -8.3059  -8.3059
    -8.2719  -8.2719  -8.2109  -8.2109  -4.6668  -4.6668  -4.3415  -4.3415
    -4.3349  -4.3349  -4.3153  -4.3153  -4.2972  -4.2972  -4.2932  -4.2932
    -4.2846  -4.2846  -4.1407  -4.1407   0.2688   0.2688   0.3483   0.3483
     0.6679   0.6679   0.7767   0.7767   0.9958   0.9958   1.1270   1.1270
     1.5069   1.5069   1.5786   1.5786   1.7250   1.7250   1.8155   1.8155
     1.9577   1.9577   1.9719   1.9719   2.1705   2.1705   2.2621   2.2621
     2.2716   2.2716   2.3238   2.3238   2.4423   2.4423   2.4763   2.4763

          k = 0.3304 0.3266 0.0000 ( 50152 PWs)   bands (ev):

   -17.4926 -17.4922 -17.4920 -17.4916 -13.2280 -13.2260 -13.2174 -13.2140
   -13.2121 -13.2082 -13.2071 -13.2046 -13.1681 -13.1680 -13.1677 -13.1676
   -13.1653 -13.1653 -13.1649 -13.1648 -13.1613 -13.1612 -13.1611 -13.1610
    -8.7851  -8.6786  -8.5629  -8.4158  -8.4146  -8.4129  -8.3918  -8.3899
    -8.3161  -8.2771  -8.1789  -8.1501  -4.7607  -4.5315  -4.3748  -4.3314
    -4.3277  -4.3201  -4.3186  -4.3114  -4.3050  -4.3043  -4.3003  -4.2975
    -4.2920  -4.2643  -4.1394  -3.9508  -0.0838  -0.0293  -0.0188   0.1292
     0.3566   0.5313   0.9047   1.0734   1.0902   1.0906   1.2158   1.4819
     1.5055   1.5821   1.7114   1.8115   1.8294   1.8788   1.8861   1.9223
     1.9484   1.9924   2.0343   2.0482   2.0846   2.0862   2.1296   2.1351
     2.1489   2.2203   2.2517   2.3133   2.4920   2.5590   2.6680   2.8809

          k = 0.3304 0.3266-0.3447 ( 50168 PWs)   bands (ev):

   -17.4923 -17.4923 -17.4919 -17.4919 -13.2218 -13.2218 -13.2195 -13.2195
   -13.2110 -13.2110 -13.2064 -13.2064 -13.1679 -13.1679 -13.1678 -13.1678
   -13.1651 -13.1651 -13.1651 -13.1651 -13.1612 -13.1612 -13.1610 -13.1610
    -8.7056  -8.7056  -8.6006  -8.6006  -8.3921  -8.3921  -8.3288  -8.3288
    -8.2413  -8.2413  -8.2177  -8.2177  -4.5486  -4.5486  -4.3788  -4.3788
    -4.3262  -4.3262  -4.3123  -4.3123  -4.2997  -4.2997  -4.2903  -4.2903
    -4.2680  -4.2680  -4.1921  -4.1921   0.0485   0.0485   0.4161   0.4161
     0.6420   0.6420   0.7765   0.7765   0.9858   0.9858   1.1804   1.1804
     1.4732   1.4732   1.5868   1.5868   1.7830   1.7830   1.8845   1.8845
     1.9781   1.9781   2.0661   2.0661   2.1037   2.1037   2.1921   2.1921
     2.2293   2.2293   2.3034   2.3034   2.4181   2.4181   2.5567   2.5567

     highest occupied level (ev):     3.3351

!    total energy              =   -8165.85320738 Ry
     estimated scf accuracy    <          4.0E-10 Ry

     The total energy is the sum of the following terms:
     one-electron contribution =    -334.18219561 Ry
     hartree contribution      =     254.87927486 Ry
     xc contribution           =    -792.72832475 Ry
     ewald contribution        =    -644.20225126 Ry
     one-center paw contrib.   =   -6649.61971062 Ry

     convergence has been achieved in   9 iterations

     Forces acting on atoms (cartesian axes, Ry/au):

     atom    1 type  1   force =    -0.00093989   -0.00116538    0.00000000
     atom    2 type  1   force =     0.00093989    0.00116538    0.00000000
     atom    3 type  1   force =    -0.00093989    0.00116538    0.00000000
     atom    4 type  1   force =     0.00093989   -0.00116538   -0.00000000
     atom    5 type  2   force =    -0.00000000    0.00000000    0.00000000
     atom    6 type  2   force =    -0.00000000   -0.00000000    0.00000000
     atom    7 type  2   force =     0.00000000    0.00000000    0.00000000
     atom    8 type  2   force =     0.00000000    0.00000000    0.00000000
     atom    9 type  3   force =     0.00132438   -0.00013651   -0.00000000
     atom   10 type  3   force =    -0.00132438    0.00013651    0.00000000
     atom   11 type  3   force =     0.00132438    0.00013651    0.00000000
     atom   12 type  3   force =    -0.00132438   -0.00013651    0.00000000
     atom   13 type  3   force =    -0.00171076   -0.00158518   -0.00037396
     atom   14 type  3   force =     0.00171076    0.00158518   -0.00037396
     atom   15 type  3   force =    -0.00171076    0.00158518    0.00037396
     atom   16 type  3   force =     0.00171076   -0.00158518    0.00037396
     atom   17 type  3   force =     0.00171076    0.00158518    0.00037396
     atom   18 type  3   force =    -0.00171076   -0.00158518    0.00037396
     atom   19 type  3   force =     0.00171076   -0.00158518   -0.00037396
     atom   20 type  3   force =    -0.00171076    0.00158518   -0.00037396

     Total force =     0.007790     Total SCF correction =     0.000011


     Computing stress (Cartesian axis) and pressure

          total   stress  (Ry/bohr**3)                   (kbar)     P=       -0.87
  -0.00000850   0.00000000   0.00000000           -1.25        0.00        0.00
   0.00000000  -0.00000598   0.00000000            0.00       -0.88        0.00
   0.00000000   0.00000000  -0.00000331            0.00        0.00       -0.49

     Energy error            =      3.8E-04 Ry
     Gradient error          =      1.7E-03 Ry/Bohr
     Cell gradient error     =      1.3E+00 kbar

     number of scf cycles    =  17
     number of bfgs steps    =  16

     enthalpy           old  =   -8165.8528267513 Ry
     enthalpy           new  =   -8165.8532073776 Ry

     CASE: enthalpy          _new < enthalpy          _old

     new trust radius        =       0.0759888966 bohr
     new conv_thr            =       0.0000000017 Ry

     new unit-cell volume =   6368.46715 a.u.^3 (   943.70947 Ang^3 )
     density =      5.07336 g/cm^3

CELL_PARAMETERS (angstrom)
   8.647925668   0.000000000   0.000000000
   0.000000000   8.793974701   0.000000000
   0.000000000   0.000000000  12.409124779

ATOMIC_POSITIONS (crystal)
Cs               0.4883527812        0.4385606671        0.2500000000
Cs               0.5116472188        0.5614393329        0.7500000000
Cs              -0.0116472188        0.0614393329        0.7500000000
Cs               1.0116472188        0.9385606671        0.2500000000
Pb               0.5000000000        0.0000000000       -0.0000000000
Pb               0.5000000000       -0.0000000000        0.5000000000
Pb               0.0000000000        0.5000000000       -0.0000000000
Pb              -0.0000000000        0.5000000000        0.5000000000
I                0.5705705145        0.0081452185        0.2500000000
I                0.4294294855        0.9918547815        0.7500000000
I                0.0705705145        0.4918547815        0.7500000000
I                0.9294294855        0.5081452185        0.2500000000
I                0.6942118599        0.3060587238        0.9663982726
I                0.3057881401        0.6939412762        0.4663982726
I                0.1942118599        0.1939412762        0.0336017274
I                0.8057881401        0.8060587238        0.5336017274
I                0.3057881401        0.6939412762        0.0336017274
I                0.6942118599        0.3060587238        0.5336017274
I                0.8057881401        0.8060587238        0.9663982726
I                0.1942118599        0.1939412762        0.4663982726



     Writing config-only to output data dir ./tmp/cspbi3_gamma_s1.save/ :
     XML data file
     NEW-OLD atomic charge density approx. for the potential
     New effective cutoffs (rho, wfc):  486.71   60.82

     total cpu time spent up to now is    21906.3 secs

     Self-consistent Calculation

     iteration #  1     ecut=    60.00 Ry     beta= 0.50
     Davidson diagonalization with overlap
     ethr =  1.00E-06,  avg # of iterations =  8.0

     Threshold (ethr) on eigenvalues was too large:
     Diagonalizing with lowered threshold

     Davidson diagonalization with overlap
     ethr =  6.60E-08,  avg # of iterations =  4.5

     total cpu time spent up to now is    22278.1 secs

     total energy              =   -8165.85357257 Ry
     estimated scf accuracy    <       0.00014634 Ry

     iteration #  2     ecut=    60.00 Ry     beta= 0.50
     Davidson diagonalization with overlap
     ethr =  8.31E-08,  avg # of iterations =  4.5

     total cpu time spent up to now is    22419.3 secs

     total energy              =   -8165.85374642 Ry
     estimated scf accuracy    <       0.00002186 Ry

     iteration #  3     ecut=    60.00 Ry     beta= 0.50
     Davidson diagonalization with overlap
     ethr =  1.24E-08,  avg # of iterations =  4.4

     total cpu time spent up to now is    22524.2 secs

     total energy              =   -8165.85378439 Ry
     estimated scf accuracy    <       0.00000787 Ry

     iteration #  4     ecut=    60.00 Ry     beta= 0.50
     Davidson diagonalization with overlap
     ethr =  4.47E-09,  avg # of iterations =  4.6

     total cpu time spent up to now is    22641.2 secs

     total energy              =   -8165.85379352 Ry
     estimated scf accuracy    <       0.00000039 Ry

     iteration #  5     ecut=    60.00 Ry     beta= 0.50
     Davidson diagonalization with overlap
     ethr =  2.21E-10,  avg # of iterations =  5.8

     total cpu time spent up to now is    22827.7 secs

     total energy              =   -8165.85379575 Ry
     estimated scf accuracy    <       0.00000029 Ry

     iteration #  6     ecut=    60.00 Ry     beta= 0.50
     Davidson diagonalization with overlap
     ethr =  1.66E-10,  avg # of iterations =  3.6

     total cpu time spent up to now is    22942.4 secs

     total energy              =   -8165.85379624 Ry
     estimated scf accuracy    <          6.0E-09 Ry

     iteration #  7     ecut=    60.00 Ry     beta= 0.50
     Davidson diagonalization with overlap
     ethr =  3.41E-12,  avg # of iterations =  5.6

     total cpu time spent up to now is    23159.4 secs

     End of self-consistent calculation

          k = 0.0000 0.0000 0.0000 ( 50101 PWs)   bands (ev):

   -17.5015 -17.5008 -17.5001 -17.4995 -13.2545 -13.2481 -13.2459 -13.2459
   -13.2400 -13.2332 -13.2261 -13.2260 -13.1946 -13.1944 -13.1941 -13.1940
   -13.1917 -13.1917 -13.1913 -13.1913 -13.1888 -13.1886 -13.1879 -13.1878
    -8.9187  -8.7117  -8.4868  -8.4386  -8.4209  -8.3899  -8.3883  -8.3766
    -8.3715  -8.1866  -8.1763  -8.1754  -5.1377  -4.6006  -4.3555  -4.3506
    -4.3454  -4.3311  -4.3300  -4.3276  -4.3258  -4.3223  -4.3218  -4.3096
    -4.2883  -4.2872  -4.0979  -3.6119  -0.1694  -0.1251  -0.0713  -0.0244
     0.0459   0.0978   0.9945   1.2531   1.2717   1.2804   1.2937   1.3802
     1.5810   1.7514   1.7933   1.8146   1.8603   1.8824   1.9225   1.9432
     1.9451   1.9468   1.9672   2.0257   2.0440   2.1290   2.2534   2.2537
     2.2712   2.3003   2.3231   2.4006   2.5380   2.5589   2.8198   3.2942

          k = 0.0000 0.0000-0.3456 ( 50118 PWs)   bands (ev):

   -17.5012 -17.5012 -17.4998 -17.4998 -13.2472 -13.2472 -13.2459 -13.2459
   -13.2406 -13.2406 -13.2261 -13.2261 -13.1944 -13.1944 -13.1942 -13.1942
   -13.1915 -13.1915 -13.1915 -13.1915 -13.1887 -13.1887 -13.1879 -13.1879
    -8.8402  -8.8402  -8.4551  -8.4551  -8.3857  -8.3857  -8.3810  -8.3810
    -8.2841  -8.2841  -8.1755  -8.1755  -4.8831  -4.8831  -4.3494  -4.3494
    -4.3421  -4.3421  -4.3249  -4.3249  -4.3088  -4.3088  -4.3049  -4.3049
    -4.3034  -4.3034  -3.9094  -3.9094  -0.0649  -0.0649  -0.0243  -0.0243
     0.6148   0.6148   0.8578   0.8578   1.1186   1.1186   1.3568   1.3568
     1.4055   1.4055   1.7753   1.7753   1.8635   1.8635   1.9668   1.9668
     1.9680   1.9680   2.0026   2.0026   2.1568   2.1568   2.1589   2.1589
     2.2701   2.2701   2.2716   2.2716   2.4628   2.4628   2.9051   2.9051

          k = 0.0000 0.3251 0.0000 ( 50121 PWs)   bands (ev):

   -17.5011 -17.5005 -17.5004 -17.4999 -13.2529 -13.2497 -13.2410 -13.2410
   -13.2383 -13.2348 -13.2311 -13.2310 -13.1945 -13.1945 -13.1941 -13.1940
   -13.1917 -13.1917 -13.1913 -13.1913 -13.1886 -13.1884 -13.1882 -13.1880
    -8.8489  -8.6663  -8.6371  -8.4688  -8.4329  -8.4255  -8.3403  -8.3271
    -8.2705  -8.2328  -8.2261  -8.2020  -4.9159  -4.4839  -4.4435  -4.3539
    -4.3469  -4.3341  -4.3242  -4.3188  -4.3135  -4.3130  -4.3107  -4.3049
    -4.3022  -4.2434  -4.2354  -3.8853  -0.1167  -0.0121   0.1751   0.3328
     0.3737   0.4623   0.9601   1.0218   1.1699   1.1784   1.2059   1.2705
     1.3464   1.4640   1.5744   1.6027   1.8250   1.8568   1.8892   1.9202
     1.9316   1.9513   2.0156   2.0618   2.0756   2.1219   2.1298   2.1471
     2.2185   2.2255   2.3138   2.3464   2.4496   2.5250   2.6116   2.8368

          k = 0.0000 0.3251-0.3456 ( 50184 PWs)   bands (ev):

   -17.5008 -17.5008 -17.5001 -17.5001 -13.2456 -13.2456 -13.2423 -13.2423
   -13.2410 -13.2410 -13.2311 -13.2311 -13.1943 -13.1943 -13.1943 -13.1943
   -13.1915 -13.1915 -13.1915 -13.1915 -13.1885 -13.1885 -13.1881 -13.1881
    -8.7711  -8.7711  -8.6008  -8.6008  -8.3361  -8.3361  -8.3150  -8.3150
    -8.2867  -8.2867  -8.2295  -8.2295  -4.6805  -4.6805  -4.3543  -4.3543
    -4.3351  -4.3351  -4.3343  -4.3343  -4.3185  -4.3185  -4.3058  -4.3058
    -4.2903  -4.2903  -4.1476  -4.1476   0.2446   0.2446   0.3607   0.3607
     0.7045   0.7045   0.7386   0.7386   1.0491   1.0491   1.1038   1.1038
     1.4576   1.4576   1.5730   1.5730   1.7139   1.7139   1.7410   1.7410
     1.8578   1.8578   1.9357   1.9357   2.1945   2.1945   2.2286   2.2286
     2.2592   2.2592   2.2832   2.2832   2.4789   2.4789   2.5059   2.5059

          k = 0.3306 0.0000 0.0000 ( 50214 PWs)   bands (ev):

   -17.5011 -17.5006 -17.5004 -17.4999 -13.2529 -13.2497 -13.2410 -13.2410
   -13.2383 -13.2348 -13.2311 -13.2310 -13.1945 -13.1945 -13.1941 -13.1940
   -13.1917 -13.1917 -13.1913 -13.1913 -13.1886 -13.1884 -13.1882 -13.1880
    -8.8488  -8.6664  -8.6379  -8.4719  -8.4323  -8.4260  -8.3394  -8.3234
    -8.2775  -8.2281  -8.2251  -8.2031  -4.9133  -4.4644  -4.4365  -4.3463
    -4.3410  -4.3363  -4.3345  -4.3340  -4.3280  -4.3089  -4.3037  -4.3033
    -4.3001  -4.2462  -4.2390  -3.8911  -0.1161  -0.0079   0.1994   0.3347
     0.3412   0.4720   0.8672   1.0509   1.1412   1.1688   1.1955   1.2954
     1.3429   1.4895   1.5798   1.6419   1.8454   1.8595   1.8958   1.9212
     1.9552   1.9560   2.0202   2.0228   2.0893   2.1376   2.1412   2.1718
     2.2376   2.2749   2.3381   2.3709   2.4254   2.4255   2.5958   2.7955

          k = 0.3306 0.0000-0.3456 ( 50200 PWs)   bands (ev):

   -17.5008 -17.5008 -17.5001 -17.5001 -13.2456 -13.2456 -13.2423 -13.2423
   -13.2410 -13.2410 -13.2311 -13.2311 -13.1943 -13.1943 -13.1943 -13.1943
   -13.1915 -13.1915 -13.1915 -13.1915 -13.1885 -13.1885 -13.1881 -13.1881
    -8.7712  -8.7712  -8.6011  -8.6011  -8.3342  -8.3342  -8.3197  -8.3197
    -8.2871  -8.2871  -8.2265  -8.2265  -4.6770  -4.6770  -4.3516  -4.3516
    -4.3450  -4.3450  -4.3253  -4.3253  -4.3058  -4.3058  -4.3026  -4.3026
    -4.2945  -4.2945  -4.1627  -4.1627   0.2649   0.2649   0.3493   0.3493
     0.6518   0.6518   0.7658   0.7658   0.9824   0.9824   1.1197   1.1197
     1.4998   1.4998   1.5682   1.5682   1.7098   1.7098   1.8069   1.8069
     1.9326   1.9326   1.9579   1.9579   2.1518   2.1518   2.2459   2.2459
     2.2560   2.2560   2.2998   2.2998   2.4139   2.4139   2.4515   2.4515

          k = 0.3306 0.3251 0.0000 ( 50152 PWs)   bands (ev):

   -17.5009 -17.5006 -17.5003 -17.5000 -13.2532 -13.2514 -13.2423 -13.2391
   -13.2374 -13.2336 -13.2326 -13.2302 -13.1945 -13.1945 -13.1941 -13.1941
   -13.1917 -13.1917 -13.1913 -13.1913 -13.1885 -13.1883 -13.1883 -13.1881
    -8.7937  -8.6902  -8.5677  -8.4326  -8.4305  -8.4232  -8.4012  -8.3996
    -8.3287  -8.2895  -8.1945  -8.1661  -4.7781  -4.5546  -4.3852  -4.3415
    -4.3377  -4.3299  -4.3274  -4.3216  -4.3151  -4.3142  -4.3095  -4.3068
    -4.3011  -4.2746  -4.1512  -3.9695  -0.0992  -0.0453  -0.0143   0.1350
     0.3537   0.5301   0.8898   1.0639   1.0797   1.0811   1.2013   1.4727
     1.4968   1.5707   1.6947   1.7942   1.8154   1.8641   1.8701   1.9092
     1.9239   1.9810   2.0214   2.0308   2.0706   2.0721   2.1169   2.1208
     2.1335   2.2061   2.2288   2.2896   2.4680   2.5368   2.6495   2.8527

          k = 0.3306 0.3251-0.3456 ( 50168 PWs)   bands (ev):

   -17.5006 -17.5006 -17.5003 -17.5003 -13.2469 -13.2469 -13.2447 -13.2447
   -13.2364 -13.2364 -13.2319 -13.2319 -13.1943 -13.1943 -13.1943 -13.1943
   -13.1915 -13.1915 -13.1915 -13.1915 -13.1884 -13.1884 -13.1882 -13.1882
    -8.7139  -8.7139  -8.6124  -8.6124  -8.4015  -8.4015  -8.3419  -8.3419
    -8.2558  -8.2558  -8.2325  -8.2325  -4.5627  -4.5627  -4.3932  -4.3932
    -4.3363  -4.3363  -4.3222  -4.3222  -4.3094  -4.3094  -4.2993  -4.2993
    -4.2787  -4.2787  -4.2091  -4.2091   0.0543   0.0543   0.4149   0.4149
     0.6264   0.6264   0.7622   0.7622   0.9719   0.9719   1.1688   1.1688
     1.4650   1.4650   1.5793   1.5793   1.7715   1.7715   1.8632   1.8632
     1.9616   1.9616   2.0505   2.0505   2.0912   2.0912   2.1753   2.1753
     2.2136   2.2136   2.2821   2.2821   2.4004   2.4004   2.5278   2.5278

     highest occupied level (ev):     3.2942

!    total energy              =   -8165.85379641 Ry
     estimated scf accuracy    <          1.2E-09 Ry

     The total energy is the sum of the following terms:
     one-electron contribution =    -334.22985367 Ry
     hartree contribution      =     254.78733754 Ry
     xc contribution           =    -792.70898207 Ry
     ewald contribution        =    -644.08402659 Ry
     one-center paw contrib.   =   -6649.61827163 Ry

     convergence has been achieved in   7 iterations

     Forces acting on atoms (cartesian axes, Ry/au):

     atom    1 type  1   force =    -0.00067782   -0.00127777    0.00000000
     atom    2 type  1   force =     0.00067782    0.00127777    0.00000000
     atom    3 type  1   force =    -0.00067782    0.00127777    0.00000000
     atom    4 type  1   force =     0.00067782   -0.00127777   -0.00000000
     atom    5 type  2   force =     0.00000000    0.00000000    0.00000000
     atom    6 type  2   force =    -0.00000000    0.00000000    0.00000000
     atom    7 type  2   force =     0.00000000   -0.00000000   -0.00000000
     atom    8 type  2   force =     0.00000000    0.00000000    0.00000000
     atom    9 type  3   force =     0.00115195    0.00002585   -0.00000000
     atom   10 type  3   force =    -0.00115195   -0.00002585    0.00000000
     atom   11 type  3   force =     0.00115195   -0.00002585    0.00000000
     atom   12 type  3   force =    -0.00115195    0.00002585    0.00000000
     atom   13 type  3   force =    -0.00111745   -0.00170186   -0.00039529
     atom   14 type  3   force =     0.00111745    0.00170186   -0.00039529
     atom   15 type  3   force =    -0.00111745    0.00170186    0.00039529
     atom   16 type  3   force =     0.00111745   -0.00170186    0.00039529
     atom   17 type  3   force =     0.00111745    0.00170186    0.00039529
     atom   18 type  3   force =    -0.00111745   -0.00170186    0.00039529
     atom   19 type  3   force =     0.00111745   -0.00170186   -0.00039529
     atom   20 type  3   force =    -0.00111745    0.00170186   -0.00039529

     Total force =     0.006935     Total SCF correction =     0.000093


     Computing stress (Cartesian axis) and pressure

          total   stress  (Ry/bohr**3)                   (kbar)     P=       -1.47
  -0.00001567   0.00000000   0.00000000           -2.31        0.00        0.00
   0.00000000  -0.00001322   0.00000000            0.00       -1.94        0.00
   0.00000000   0.00000000  -0.00000102            0.00        0.00       -0.15

     Energy error            =      5.9E-04 Ry
     Gradient error          =      1.7E-03 Ry/Bohr
     Cell gradient error     =      2.3E+00 kbar

     number of scf cycles    =  18
     number of bfgs steps    =  17

     enthalpy           old  =   -8165.8532073776 Ry
     enthalpy           new  =   -8165.8537964105 Ry

     CASE: enthalpy          _new < enthalpy          _old

     new trust radius        =       0.0889199429 bohr
     new conv_thr            =       0.0000000017 Ry

     new unit-cell volume =   6369.65638 a.u.^3 (   943.88569 Ang^3 )
     density =      5.07241 g/cm^3

CELL_PARAMETERS (angstrom)
   8.642683390   0.000000000   0.000000000
   0.000000000   8.826029170   0.000000000
   0.000000000   0.000000000  12.373866930

ATOMIC_POSITIONS (crystal)
Cs               0.4845395474        0.4347437572        0.2500000000
Cs               0.5154604526        0.5652562428        0.7500000000
Cs              -0.0154604526        0.0652562428        0.7500000000
Cs               1.0154604526        0.9347437572        0.2500000000
Pb               0.5000000000        0.0000000000       -0.0000000000
Pb               0.5000000000       -0.0000000000        0.5000000000
Pb               0.0000000000        0.5000000000       -0.0000000000
Pb              -0.0000000000        0.5000000000        0.5000000000
I                0.5739449487        0.0084590868        0.2500000000
I                0.4260550513        0.9915409132        0.7500000000
I                0.0739449487        0.4915409132        0.7500000000
I                0.9260550513        0.5084590868        0.2500000000
I                0.6926140162        0.3062859362        0.9662241487
I                0.3073859838        0.6937140638        0.4662241487
I                0.1926140162        0.1937140638        0.0337758513
I                0.8073859838        0.8062859362        0.5337758513
I                0.3073859838        0.6937140638        0.0337758513
I                0.6926140162        0.3062859362        0.5337758513
I                0.8073859838        0.8062859362        0.9662241487
I                0.1926140162        0.1937140638        0.4662241487



     Writing config-only to output data dir ./tmp/cspbi3_gamma_s1.save/ :
     XML data file
     NEW-OLD atomic charge density approx. for the potential
     New effective cutoffs (rho, wfc):  487.39   60.93

     total cpu time spent up to now is    23312.9 secs

     Self-consistent Calculation

     iteration #  1     ecut=    60.00 Ry     beta= 0.50
     Davidson diagonalization with overlap
     ethr =  1.00E-06,  avg # of iterations =  8.0

     Threshold (ethr) on eigenvalues was too large:
     Diagonalizing with lowered threshold

     Davidson diagonalization with overlap
     ethr =  3.90E-08,  avg # of iterations =  6.0

     total cpu time spent up to now is    23722.2 secs

     total energy              =   -8165.85406790 Ry
     estimated scf accuracy    <       0.00008273 Ry

     iteration #  2     ecut=    60.00 Ry     beta= 0.50
     Davidson diagonalization with overlap
     ethr =  4.70E-08,  avg # of iterations =  2.0

     total cpu time spent up to now is    23832.3 secs

     total energy              =   -8165.85425878 Ry
     estimated scf accuracy    <       0.00001225 Ry

     iteration #  3     ecut=    60.00 Ry     beta= 0.50
     Davidson diagonalization with overlap
     ethr =  6.96E-09,  avg # of iterations =  4.8

     total cpu time spent up to now is    23978.7 secs

     total energy              =   -8165.85430666 Ry
     estimated scf accuracy    <       0.00000208 Ry

     iteration #  4     ecut=    60.00 Ry     beta= 0.50
     Davidson diagonalization with overlap
     ethr =  1.18E-09,  avg # of iterations =  5.0

     total cpu time spent up to now is    24114.3 secs

     total energy              =   -8165.85431814 Ry
     estimated scf accuracy    <       0.00000019 Ry

     iteration #  5     ecut=    60.00 Ry     beta= 0.50
     Davidson diagonalization with overlap
     ethr =  1.07E-10,  avg # of iterations =  5.1

     total cpu time spent up to now is    24260.0 secs

     total energy              =   -8165.85432090 Ry
     estimated scf accuracy    <       0.00000001 Ry

     iteration #  6     ecut=    60.00 Ry     beta= 0.50
     Davidson diagonalization with overlap
     ethr =  8.43E-12,  avg # of iterations =  6.0

     total cpu time spent up to now is    24441.2 secs

     total energy              =   -8165.85432158 Ry
     estimated scf accuracy    <          4.1E-09 Ry

     iteration #  7     ecut=    60.00 Ry     beta= 0.50
     Davidson diagonalization with overlap
     ethr =  2.33E-12,  avg # of iterations =  4.6

     total cpu time spent up to now is    24563.3 secs

     End of self-consistent calculation

          k = 0.0000 0.0000 0.0000 ( 50101 PWs)   bands (ev):

   -17.4959 -17.4952 -17.4944 -17.4938 -13.2656 -13.2595 -13.2570 -13.2569
   -13.2508 -13.2443 -13.2378 -13.2378 -13.2067 -13.2065 -13.2063 -13.2061
   -13.2040 -13.2040 -13.2036 -13.2036 -13.2013 -13.2011 -13.2005 -13.2003
    -8.9162  -8.7067  -8.4930  -8.4472  -8.4272  -8.3927  -8.3840  -8.3739
    -8.3737  -8.1915  -8.1834  -8.1812  -5.1355  -4.5953  -4.3509  -4.3471
    -4.3413  -4.3304  -4.3278  -4.3253  -4.3234  -4.3188  -4.3178  -4.3036
    -4.2832  -4.2817  -4.1117  -3.6275  -0.1738  -0.1091  -0.0660  -0.0253
     0.0566   0.1142   0.9932   1.2597   1.2741   1.2816   1.2886   1.3632
     1.5671   1.7455   1.7891   1.8173   1.8573   1.8786   1.9245   1.9332
     1.9439   1.9447   1.9538   2.0098   2.0243   2.1295   2.2514   2.2551
     2.2642   2.2932   2.3029   2.3889   2.5330   2.5519   2.7938   3.2694

          k = 0.0000 0.0000-0.3466 ( 50118 PWs)   bands (ev):

   -17.4955 -17.4955 -17.4941 -17.4941 -13.2582 -13.2582 -13.2570 -13.2570
   -13.2518 -13.2518 -13.2378 -13.2378 -13.2065 -13.2065 -13.2063 -13.2063
   -13.2038 -13.2038 -13.2038 -13.2038 -13.2012 -13.2012 -13.2004 -13.2004
    -8.8374  -8.8374  -8.4613  -8.4613  -8.3839  -8.3839  -8.3835  -8.3835
    -8.2883  -8.2883  -8.1820  -8.1820  -4.8792  -4.8792  -4.3462  -4.3462
    -4.3389  -4.3389  -4.3220  -4.3220  -4.3041  -4.3041  -4.3000  -4.3000
    -4.2977  -4.2977  -3.9272  -3.9272  -0.0470  -0.0470  -0.0178  -0.0178
     0.6111   0.6111   0.8496   0.8496   1.1221   1.1221   1.3504   1.3504
     1.4095   1.4095   1.7701   1.7701   1.8585   1.8585   1.9528   1.9528
     1.9650   1.9650   1.9987   1.9987   2.1452   2.1452   2.1587   2.1587
     2.2580   2.2580   2.2702   2.2702   2.4532   2.4532   2.8806   2.8806

          k = 0.0000 0.3239 0.0000 ( 50121 PWs)   bands (ev):

   -17.4955 -17.4948 -17.4947 -17.4942 -13.2640 -13.2610 -13.2522 -13.2522
   -13.2492 -13.2459 -13.2427 -13.2426 -13.2066 -13.2065 -13.2063 -13.2061
   -13.2040 -13.2040 -13.2037 -13.2036 -13.2011 -13.2009 -13.2007 -13.2005
    -8.8479  -8.6687  -8.6335  -8.4687  -8.4401  -8.4317  -8.3394  -8.3264
    -8.2750  -8.2374  -8.2297  -8.2067  -4.9187  -4.4939  -4.4436  -4.3514
    -4.3434  -4.3305  -4.3217  -4.3148  -4.3089  -4.3087  -4.3061  -4.3005
    -4.2983  -4.2427  -4.2300  -3.8928  -0.1211  -0.0214   0.1847   0.3518
     0.3755   0.4648   0.9537   1.0158   1.1653   1.1758   1.2051   1.2641
     1.3477   1.4616   1.5754   1.6031   1.8111   1.8516   1.8778   1.9206
     1.9210   1.9425   2.0147   2.0609   2.0681   2.1260   2.1301   2.1484
     2.2103   2.2242   2.2994   2.3465   2.4399   2.5226   2.6073   2.8259

          k = 0.0000 0.3239-0.3466 ( 50184 PWs)   bands (ev):

   -17.4951 -17.4951 -17.4945 -17.4945 -13.2566 -13.2566 -13.2536 -13.2536
   -13.2521 -13.2521 -13.2426 -13.2426 -13.2064 -13.2064 -13.2063 -13.2063
   -13.2038 -13.2038 -13.2038 -13.2038 -13.2010 -13.2010 -13.2006 -13.2006
    -8.7697  -8.7697  -8.6031  -8.6031  -8.3370  -8.3370  -8.3195  -8.3195
    -8.2900  -8.2900  -8.2333  -8.2333  -4.6817  -4.6817  -4.3538  -4.3538
    -4.3320  -4.3320  -4.3319  -4.3319  -4.3149  -4.3149  -4.3016  -4.3016
    -4.2853  -4.2853  -4.1539  -4.1539   0.2558   0.2558   0.3618   0.3618
     0.7020   0.7020   0.7327   0.7327   1.0431   1.0431   1.1006   1.1006
     1.4562   1.4562   1.5744   1.5744   1.7199   1.7199   1.7363   1.7363
     1.8440   1.8440   1.9279   1.9279   2.1888   2.1888   2.2174   2.2174
     2.2600   2.2600   2.2836   2.2836   2.4759   2.4759   2.5000   2.5000

          k = 0.3308 0.0000 0.0000 ( 50214 PWs)   bands (ev):

   -17.4955 -17.4949 -17.4946 -17.4941 -13.2640 -13.2610 -13.2522 -13.2522
   -13.2492 -13.2459 -13.2427 -13.2426 -13.2066 -13.2065 -13.2063 -13.2061
   -13.2040 -13.2040 -13.2036 -13.2036 -13.2011 -13.2009 -13.2007 -13.2005
    -8.8470  -8.6672  -8.6333  -8.4685  -8.4387  -8.4323  -8.3430  -8.3263
    -8.2798  -8.2346  -8.2299  -8.2078  -4.9155  -4.4741  -4.4338  -4.3434
    -4.3356  -4.3337  -4.3294  -4.3290  -4.3248  -4.3038  -4.2997  -4.2992
    -4.2951  -4.2440  -4.2376  -3.8995  -0.1200  -0.0151   0.2013   0.3408
     0.3480   0.4875   0.8633   1.0510   1.1448   1.1690   1.1968   1.3059
     1.3396   1.4809   1.5790   1.6335   1.8362   1.8559   1.8910   1.9092
     1.9464   1.9560   2.0119   2.0166   2.0836   2.1289   2.1346   2.1660
     2.2271   2.2661   2.3258   2.3588   2.4144   2.4197   2.5923   2.7870

          k = 0.3308 0.0000-0.3466 ( 50200 PWs)   bands (ev):

   -17.4952 -17.4952 -17.4944 -17.4944 -13.2566 -13.2566 -13.2536 -13.2536
   -13.2521 -13.2521 -13.2427 -13.2427 -13.2064 -13.2064 -13.2063 -13.2063
   -13.2038 -13.2038 -13.2038 -13.2038 -13.2010 -13.2010 -13.2006 -13.2006
    -8.7692  -8.7692  -8.6015  -8.6015  -8.3374  -8.3374  -8.3228  -8.3228
    -8.2913  -8.2913  -8.2319  -8.2319  -4.6767  -4.6767  -4.3485  -4.3485
    -4.3422  -4.3422  -4.3219  -4.3219  -4.3008  -4.3008  -4.2982  -4.2982
    -4.2909  -4.2909  -4.1716  -4.1716   0.2687   0.2687   0.3575   0.3575
     0.6449   0.6449   0.7653   0.7653   0.9809   0.9809   1.1228   1.1228
     1.5019   1.5019   1.5682   1.5682   1.7058   1.7058   1.8076   1.8076
     1.9163   1.9163   1.9536   1.9536   2.1428   2.1428   2.2393   2.2393
     2.2535   2.2535   2.2881   2.2881   2.4003   2.4003   2.4438   2.4438

          k = 0.3308 0.3239 0.0000 ( 50152 PWs)   bands (ev):

   -17.4953 -17.4949 -17.4946 -17.4943 -13.2644 -13.2626 -13.2533 -13.2501
   -13.2487 -13.2448 -13.2442 -13.2416 -13.2066 -13.2065 -13.2062 -13.2062
   -13.2040 -13.2040 -13.2037 -13.2036 -13.2010 -13.2008 -13.2008 -13.2006
    -8.7935  -8.6922  -8.5646  -8.4397  -8.4365  -8.4219  -8.4017  -8.3997
    -8.3315  -8.2920  -8.1990  -8.1711  -4.7840  -4.5649  -4.3834  -4.3384
    -4.3344  -4.3262  -4.3227  -4.3185  -4.3119  -4.3106  -4.3051  -4.3022
    -4.2968  -4.2713  -4.1513  -3.9759  -0.1033  -0.0508  -0.0028   0.1480
     0.3598   0.5366   0.8840   1.0642   1.0790   1.0814   1.1961   1.4735
     1.4970   1.5699   1.6868   1.7877   1.8114   1.8596   1.8630   1.9051
     1.9101   1.9812   2.0191   2.0248   2.0678   2.0678   2.1146   2.1199
     2.1287   2.2036   2.2191   2.2798   2.4574   2.5282   2.6438   2.8388

          k = 0.3308 0.3239-0.3466 ( 50168 PWs)   bands (ev):

   -17.4950 -17.4950 -17.4946 -17.4946 -13.2579 -13.2579 -13.2558 -13.2558
   -13.2477 -13.2477 -13.2435 -13.2435 -13.2064 -13.2064 -13.2064 -13.2064
   -13.2038 -13.2038 -13.2038 -13.2038 -13.2009 -13.2009 -13.2007 -13.2007
    -8.7135  -8.7135  -8.6144  -8.6144  -8.4021  -8.4021  -8.3451  -8.3451
    -8.2594  -8.2594  -8.2365  -8.2365  -4.5657  -4.5657  -4.3951  -4.3951
    -4.3331  -4.3331  -4.3189  -4.3189  -4.3055  -4.3055  -4.2946  -4.2946
    -4.2759  -4.2759  -4.2122  -4.2122   0.0667   0.0667   0.4224   0.4224
     0.6198   0.6198   0.7576   0.7576   0.9675   0.9675   1.1669   1.1669
     1.4671   1.4671   1.5818   1.5818   1.7710   1.7710   1.8516   1.8516
     1.9553   1.9553   2.0461   2.0461   2.0904   2.0904   2.1693   2.1693
     2.2105   2.2105   2.2736   2.2736   2.3960   2.3960   2.5140   2.5140

     highest occupied level (ev):     3.2694

!    total energy              =   -8165.85432180 Ry
     estimated scf accuracy    <          4.5E-10 Ry

     The total energy is the sum of the following terms:
     one-electron contribution =    -333.87828762 Ry
     hartree contribution      =     254.57910078 Ry
     xc contribution           =    -792.69831797 Ry
     ewald contribution        =    -644.23950660 Ry
     one-center paw contrib.   =   -6649.61731038 Ry

     convergence has been achieved in   7 iterations

     Forces acting on atoms (cartesian axes, Ry/au):

     atom    1 type  1   force =    -0.00042868   -0.00108981    0.00000000
     atom    2 type  1   force =     0.00042868    0.00108981    0.00000000
     atom    3 type  1   force =    -0.00042868    0.00108981    0.00000000
     atom    4 type  1   force =     0.00042868   -0.00108981   -0.00000000
     atom    5 type  2   force =    -0.00000000    0.00000000   -0.00000000
     atom    6 type  2   force =     0.00000000    0.00000000    0.00000000
     atom    7 type  2   force =     0.00000000   -0.00000000   -0.00000000
     atom    8 type  2   force =     0.00000000    0.00000000    0.00000000
     atom    9 type  3   force =     0.00102215   -0.00000337    0.00000000
     atom   10 type  3   force =    -0.00102215    0.00000337    0.00000000
     atom   11 type  3   force =     0.00102215    0.00000337    0.00000000
     atom   12 type  3   force =    -0.00102215   -0.00000337   -0.00000000
     atom   13 type  3   force =    -0.00016401   -0.00129060   -0.00053657
     atom   14 type  3   force =     0.00016401    0.00129060   -0.00053657
     atom   15 type  3   force =    -0.00016401    0.00129060    0.00053657
     atom   16 type  3   force =     0.00016401   -0.00129060    0.00053657
     atom   17 type  3   force =     0.00016401    0.00129060    0.00053657
     atom   18 type  3   force =    -0.00016401   -0.00129060    0.00053657
     atom   19 type  3   force =     0.00016401   -0.00129060   -0.00053657
     atom   20 type  3   force =    -0.00016401    0.00129060   -0.00053657

     Total force =     0.005051     Total SCF correction =     0.000106


     Computing stress (Cartesian axis) and pressure

          total   stress  (Ry/bohr**3)                   (kbar)     P=       -1.82
  -0.00002242   0.00000000   0.00000000           -3.30        0.00        0.00
   0.00000000  -0.00001635   0.00000000            0.00       -2.41        0.00
   0.00000000   0.00000000   0.00000171            0.00        0.00        0.25

     Energy error            =      5.3E-04 Ry
     Gradient error          =      1.3E-03 Ry/Bohr
     Cell gradient error     =      3.3E+00 kbar

     number of scf cycles    =  19
     number of bfgs steps    =  18

     enthalpy           old  =   -8165.8537964105 Ry
     enthalpy           new  =   -8165.8543217999 Ry

     CASE: enthalpy          _new < enthalpy          _old

     new trust radius        =       0.0737698395 bohr
     new conv_thr            =       0.0000000013 Ry

     new unit-cell volume =   6359.38505 a.u.^3 (   942.36364 Ang^3 )
     density =      5.08061 g/cm^3

CELL_PARAMETERS (angstrom)
   8.635506006   0.000000000   0.000000000
   0.000000000   8.836583958   0.000000000
   0.000000000   0.000000000  12.349413196

ATOMIC_POSITIONS (crystal)
Cs               0.4814854313        0.4314851377        0.2500000000
Cs               0.5185145687        0.5685148623        0.7500000000
Cs              -0.0185145687        0.0685148623        0.7500000000
Cs               1.0185145687        0.9314851377        0.2500000000
Pb               0.5000000000        0.0000000000       -0.0000000000
Pb               0.5000000000       -0.0000000000        0.5000000000
Pb               0.0000000000        0.5000000000       -0.0000000000
Pb              -0.0000000000        0.5000000000        0.5000000000
I                0.5764555952        0.0088887548        0.2500000000
I                0.4235444048        0.9911112452        0.7500000000
I                0.0764555952        0.4911112452        0.7500000000
I                0.9235444048        0.5088887548        0.2500000000
I                0.6913216265        0.3061703154        0.9661615365
I                0.3086783735        0.6938296846        0.4661615365
I                0.1913216265        0.1938296846        0.0338384635
I                0.8086783735        0.8061703154        0.5338384635
I                0.3086783735        0.6938296846        0.0338384635
I                0.6913216265        0.3061703154        0.5338384635
I                0.8086783735        0.8061703154        0.9661615365
I                0.1913216265        0.1938296846        0.4661615365



     Writing config-only to output data dir ./tmp/cspbi3_gamma_s1.save/ :
     XML data file
     NEW-OLD atomic charge density approx. for the potential
     New effective cutoffs (rho, wfc):  489.31   61.17

     total cpu time spent up to now is    24713.3 secs

     Self-consistent Calculation

     iteration #  1     ecut=    60.00 Ry     beta= 0.50
     Davidson diagonalization with overlap
     ethr =  1.00E-06,  avg # of iterations =  7.9

     Threshold (ethr) on eigenvalues was too large:
     Diagonalizing with lowered threshold

     Davidson diagonalization with overlap
     ethr =  4.68E-08,  avg # of iterations =  5.0

     total cpu time spent up to now is    25069.4 secs

     total energy              =   -8165.85450569 Ry
     estimated scf accuracy    <       0.00009764 Ry

     iteration #  2     ecut=    60.00 Ry     beta= 0.50
     Davidson diagonalization with overlap
     ethr =  5.55E-08,  avg # of iterations =  4.6

     total cpu time spent up to now is    25188.3 secs

     total energy              =   -8165.85465925 Ry
     estimated scf accuracy    <       0.00000951 Ry

     iteration #  3     ecut=    60.00 Ry     beta= 0.50
     Davidson diagonalization with overlap
     ethr =  5.40E-09,  avg # of iterations =  5.9

     total cpu time spent up to now is    25317.9 secs

     total energy              =   -8165.85469802 Ry
     estimated scf accuracy    <       0.00000844 Ry

     iteration #  4     ecut=    60.00 Ry     beta= 0.50
     Davidson diagonalization with overlap
     ethr =  4.80E-09,  avg # of iterations =  2.0

     total cpu time spent up to now is    25414.0 secs

     total energy              =   -8165.85470691 Ry
     estimated scf accuracy    <       0.00000042 Ry

     iteration #  5     ecut=    60.00 Ry     beta= 0.50
     Davidson diagonalization with overlap
     ethr =  2.39E-10,  avg # of iterations =  5.9

     total cpu time spent up to now is    25562.0 secs

     total energy              =   -8165.85470915 Ry
     estimated scf accuracy    <       0.00000004 Ry

     iteration #  6     ecut=    60.00 Ry     beta= 0.50
     Davidson diagonalization with overlap
     ethr =  2.45E-11,  avg # of iterations =  5.6

     total cpu time spent up to now is    25733.8 secs

     total energy              =   -8165.85470965 Ry
     estimated scf accuracy    <       0.00000008 Ry

     iteration #  7     ecut=    60.00 Ry     beta= 0.50
     Davidson diagonalization with overlap
     ethr =  2.45E-11,  avg # of iterations =  4.0

     total cpu time spent up to now is    25839.9 secs

     End of self-consistent calculation

          k = 0.0000 0.0000 0.0000 ( 50101 PWs)   bands (ev):

   -17.4754 -17.4747 -17.4739 -17.4733 -13.2556 -13.2497 -13.2475 -13.2472
   -13.2407 -13.2341 -13.2285 -13.2285 -13.1972 -13.1969 -13.1969 -13.1965
   -13.1948 -13.1947 -13.1944 -13.1942 -13.1918 -13.1915 -13.1909 -13.1907
    -8.9050  -8.6951  -8.4828  -8.4395  -8.4170  -8.3839  -8.3700  -8.3644
    -8.3616  -8.1814  -8.1757  -8.1724  -5.1228  -4.5810  -4.3323  -4.3289
    -4.3228  -4.3138  -4.3100  -4.3083  -4.3060  -4.3005  -4.2991  -4.2835
    -4.2636  -4.2620  -4.1020  -3.6199  -0.1637  -0.0920  -0.0552  -0.0197
     0.0709   0.1410   1.0010   1.2733   1.2879   1.2921   1.2975   1.3655
     1.5711   1.7520   1.7990   1.8338   1.8693   1.8872   1.9388   1.9390
     1.9572   1.9591   1.9593   2.0101   2.0218   2.1435   2.2647   2.2709
     2.2744   2.3041   2.3043   2.3941   2.5454   2.5619   2.7987   3.2730

          k = 0.0000 0.0000-0.3472 ( 50118 PWs)   bands (ev):

   -17.4751 -17.4751 -17.4736 -17.4736 -13.2481 -13.2481 -13.2475 -13.2475
   -13.2418 -13.2418 -13.2285 -13.2285 -13.1971 -13.1971 -13.1967 -13.1967
   -13.1946 -13.1946 -13.1944 -13.1944 -13.1917 -13.1917 -13.1908 -13.1908
    -8.8262  -8.8262  -8.4511  -8.4511  -8.3745  -8.3745  -8.3724  -8.3724
    -8.2775  -8.2775  -8.1737  -8.1737  -4.8658  -4.8658  -4.3283  -4.3283
    -4.3215  -4.3215  -4.3042  -4.3042  -4.2850  -4.2850  -4.2805  -4.2805
    -4.2774  -4.2774  -3.9204  -3.9204  -0.0289  -0.0289  -0.0062  -0.0062
     0.6198   0.6198   0.8579   0.8579   1.1341   1.1341   1.3592   1.3592
     1.4245   1.4245   1.7790   1.7790   1.8685   1.8685   1.9546   1.9546
     1.9772   1.9772   2.0110   2.0110   2.1485   2.1485   2.1744   2.1744
     2.2638   2.2638   2.2844   2.2844   2.4629   2.4629   2.8862   2.8862

          k = 0.0000 0.3235 0.0000 ( 50121 PWs)   bands (ev):

   -17.4750 -17.4744 -17.4743 -17.4737 -13.2540 -13.2510 -13.2428 -13.2427
   -13.2391 -13.2357 -13.2333 -13.2332 -13.1971 -13.1969 -13.1968 -13.1966
   -13.1948 -13.1947 -13.1943 -13.1943 -13.1916 -13.1913 -13.1912 -13.1910
    -8.8372  -8.6588  -8.6224  -8.4587  -8.4309  -8.4216  -8.3278  -8.3150
    -8.2652  -8.2282  -8.2200  -8.1962  -4.9077  -4.4849  -4.4309  -4.3341
    -4.3256  -4.3122  -4.3044  -4.2961  -4.2901  -4.2893  -4.2867  -4.2814
    -4.2797  -4.2255  -4.2112  -3.8821  -0.1105  -0.0142   0.1986   0.3731
     0.3881   0.4761   0.9589   1.0232   1.1711   1.1853   1.2145   1.2703
     1.3612   1.4738   1.5897   1.6171   1.8136   1.8582   1.8820   1.9267
     1.9351   1.9506   2.0281   2.0708   2.0762   2.1444   2.1457   2.1630
     2.2199   2.2384   2.3028   2.3618   2.4482   2.5369   2.6184   2.8333

          k = 0.0000 0.3235-0.3472 ( 50184 PWs)   bands (ev):

   -17.4747 -17.4747 -17.4740 -17.4740 -13.2466 -13.2466 -13.2438 -13.2438
   -13.2423 -13.2423 -13.2333 -13.2333 -13.1970 -13.1970 -13.1968 -13.1968
   -13.1946 -13.1946 -13.1945 -13.1945 -13.1915 -13.1915 -13.1911 -13.1911
    -8.7590  -8.7590  -8.5931  -8.5931  -8.3270  -8.3270  -8.3098  -8.3098
    -8.2785  -8.2785  -8.2237  -8.2237  -4.6702  -4.6702  -4.3382  -4.3382
    -4.3146  -4.3146  -4.3142  -4.3142  -4.2965  -4.2965  -4.2827  -4.2827
    -4.2656  -4.2656  -4.1411  -4.1411   0.2706   0.2706   0.3730   0.3730
     0.7120   0.7120   0.7415   0.7415   1.0482   1.0482   1.1101   1.1101
     1.4676   1.4676   1.5864   1.5864   1.7367   1.7367   1.7464   1.7464
     1.8494   1.8494   1.9376   1.9376   2.1986   2.1986   2.2218   2.2218
     2.2765   2.2765   2.2981   2.2981   2.4893   2.4893   2.5120   2.5120

          k = 0.3311 0.0000 0.0000 ( 50214 PWs)   bands (ev):

   -17.4750 -17.4745 -17.4741 -17.4736 -13.2541 -13.2510 -13.2428 -13.2427
   -13.2391 -13.2357 -13.2333 -13.2332 -13.1971 -13.1970 -13.1968 -13.1966
   -13.1948 -13.1947 -13.1943 -13.1943 -13.1916 -13.1913 -13.1912 -13.1910
    -8.8358  -8.6563  -8.6217  -8.4566  -8.4288  -8.4221  -8.3342  -8.3171
    -8.2680  -8.2274  -8.2208  -8.1978  -4.9042  -4.4641  -4.4186  -4.3258
    -4.3165  -4.3165  -4.3105  -4.3094  -4.3067  -4.2841  -4.2812  -4.2803
    -4.2753  -4.2261  -4.2225  -3.8899  -0.1087  -0.0056   0.2111   0.3539
     0.3606   0.5066   0.8739   1.0621   1.1601   1.1806   1.2097   1.3246
     1.3507   1.4856   1.5920   1.6383   1.8413   1.8650   1.8982   1.9131
     1.9525   1.9668   2.0179   2.0261   2.0928   2.1306   2.1468   2.1789
     2.2352   2.2746   2.3320   2.3656   2.4252   2.4325   2.6057   2.7989

          k = 0.3311 0.0000-0.3472 ( 50200 PWs)   bands (ev):

   -17.4747 -17.4747 -17.4739 -17.4739 -13.2466 -13.2466 -13.2438 -13.2438
   -13.2423 -13.2423 -13.2333 -13.2333 -13.1970 -13.1970 -13.1968 -13.1968
   -13.1946 -13.1946 -13.1945 -13.1945 -13.1915 -13.1915 -13.1911 -13.1911
    -8.7581  -8.7581  -8.5902  -8.5902  -8.3281  -8.3281  -8.3122  -8.3122
    -8.2809  -8.2809  -8.2236  -8.2236  -4.6640  -4.6640  -4.3306  -4.3306
    -4.3249  -4.3249  -4.3039  -4.3039  -4.2816  -4.2816  -4.2789  -4.2789
    -4.2725  -4.2725  -4.1615  -4.1615   0.2796   0.2796   0.3715   0.3715
     0.6517   0.6517   0.7776   0.7776   0.9932   0.9932   1.1369   1.1369
     1.5143   1.5143   1.5805   1.5805   1.7165   1.7165   1.8189   1.8189
     1.9187   1.9187   1.9627   1.9627   2.1494   2.1494   2.2477   2.2477
     2.2665   2.2665   2.2948   2.2948   2.4083   2.4083   2.4573   2.4573

          k = 0.3311 0.3235 0.0000 ( 50152 PWs)   bands (ev):

   -17.4748 -17.4745 -17.4741 -17.4738 -13.2544 -13.2527 -13.2436 -13.2403
   -13.2393 -13.2349 -13.2347 -13.2319 -13.1971 -13.1970 -13.1968 -13.1967
   -13.1948 -13.1947 -13.1943 -13.1943 -13.1915 -13.1913 -13.1912 -13.1910
    -8.7829  -8.6819  -8.5534  -8.4306  -8.4264  -8.4108  -8.3915  -8.3889
    -8.3219  -8.2822  -8.1888  -8.1610  -4.7740  -4.5561  -4.3677  -4.3206
    -4.3165  -4.3080  -4.3034  -4.3005  -4.2939  -4.2921  -4.2860  -4.2827
    -4.2778  -4.2528  -4.1369  -3.9652  -0.0923  -0.0410   0.0128   0.1639
     0.3738   0.5494   0.8914   1.0760   1.0901   1.0928   1.2038   1.4859
     1.5078   1.5819   1.6923   1.7962   1.8210   1.8696   1.8697   1.9136
     1.9141   1.9947   2.0303   2.0346   2.0772   2.0789   2.1261   2.1340
     2.1392   2.2160   2.2278   2.2906   2.4665   2.5386   2.6553   2.8467

          k = 0.3311 0.3235-0.3472 ( 50168 PWs)   bands (ev):

   -17.4745 -17.4745 -17.4741 -17.4741 -13.2479 -13.2479 -13.2458 -13.2458
   -13.2382 -13.2382 -13.2340 -13.2340 -13.1969 -13.1969 -13.1968 -13.1968
   -13.1945 -13.1945 -13.1945 -13.1945 -13.1914 -13.1914 -13.1912 -13.1912
    -8.7028  -8.7028  -8.6039  -8.6039  -8.3921  -8.3921  -8.3354  -8.3354
    -8.2488  -8.2488  -8.2264  -8.2264  -4.5542  -4.5542  -4.3814  -4.3814
    -4.3153  -4.3153  -4.3010  -4.3010  -4.2869  -4.2869  -4.2753  -4.2753
    -4.2579  -4.2579  -4.1977  -4.1977   0.0823   0.0823   0.4370   0.4370
     0.6268   0.6268   0.7666   0.7666   0.9760   0.9760   1.1769   1.1769
     1.4804   1.4804   1.5950   1.5950   1.7835   1.7835   1.8562   1.8562
     1.9640   1.9640   2.0565   2.0565   2.1034   2.1034   2.1786   2.1786
     2.2230   2.2230   2.2836   2.2836   2.4089   2.4089   2.5226   2.5226

     highest occupied level (ev):     3.2730

!    total energy              =   -8165.85470982 Ry
     estimated scf accuracy    <          4.2E-10 Ry

     The total energy is the sum of the following terms:
     one-electron contribution =    -333.16621998 Ry
     hartree contribution      =     254.30161159 Ry
     xc contribution           =    -792.70191938 Ry
     ewald contribution        =    -644.67107121 Ry
     one-center paw contrib.   =   -6649.61711084 Ry

     convergence has been achieved in   7 iterations

     Forces acting on atoms (cartesian axes, Ry/au):

     atom    1 type  1   force =    -0.00028308   -0.00065280    0.00000000
     atom    2 type  1   force =     0.00028308    0.00065280    0.00000000
     atom    3 type  1   force =    -0.00028308    0.00065280    0.00000000
     atom    4 type  1   force =     0.00028308   -0.00065280    0.00000000
     atom    5 type  2   force =     0.00000000    0.00000000    0.00000000
     atom    6 type  2   force =    -0.00000000    0.00000000    0.00000000
     atom    7 type  2   force =     0.00000000   -0.00000000    0.00000000
     atom    8 type  2   force =     0.00000000    0.00000000    0.00000000
     atom    9 type  3   force =     0.00096516   -0.00022162    0.00000000
     atom   10 type  3   force =    -0.00096516    0.00022162    0.00000000
     atom   11 type  3   force =     0.00096516    0.00022162    0.00000000
     atom   12 type  3   force =    -0.00096516   -0.00022162   -0.00000000
     atom   13 type  3   force =     0.00072090   -0.00054339   -0.00075055
     atom   14 type  3   force =    -0.00072090    0.00054339   -0.00075055
     atom   15 type  3   force =     0.00072090    0.00054339    0.00075055
     atom   16 type  3   force =    -0.00072090   -0.00054339    0.00075055
     atom   17 type  3   force =    -0.00072090    0.00054339    0.00075055
     atom   18 type  3   force =     0.00072090   -0.00054339    0.00075055
     atom   19 type  3   force =    -0.00072090   -0.00054339   -0.00075055
     atom   20 type  3   force =     0.00072090    0.00054339   -0.00075055

     Total force =     0.004120     Total SCF correction =     0.000110


     Computing stress (Cartesian axis) and pressure

          total   stress  (Ry/bohr**3)                   (kbar)     P=       -1.75
  -0.00002565   0.00000000   0.00000000           -3.77        0.00        0.00
   0.00000000  -0.00001401   0.00000000            0.00       -2.06        0.00
   0.00000000   0.00000000   0.00000393            0.00        0.00        0.58

     Energy error            =      3.9E-04 Ry
     Gradient error          =      9.7E-04 Ry/Bohr
     Cell gradient error     =      3.8E+00 kbar

     number of scf cycles    =  20
     number of bfgs steps    =  19

     enthalpy           old  =   -8165.8543217999 Ry
     enthalpy           new  =   -8165.8547098167 Ry

     CASE: enthalpy          _new < enthalpy          _old

     new trust radius        =       0.0523098792 bohr
     new conv_thr            =       0.0000000010 Ry

     new unit-cell volume =   6340.76372 a.u.^3 (   939.60424 Ang^3 )
     density =      5.09553 g/cm^3

CELL_PARAMETERS (angstrom)
   8.623195375   0.000000000   0.000000000
   0.000000000   8.833325178   0.000000000
   0.000000000   0.000000000  12.335379779

ATOMIC_POSITIONS (crystal)
Cs               0.4793673456        0.4291338527        0.2500000000
Cs               0.5206326544        0.5708661473        0.7500000000
Cs              -0.0206326544        0.0708661473        0.7500000000
Cs               1.0206326544        0.9291338527        0.2500000000
Pb               0.5000000000        0.0000000000       -0.0000000000
Pb               0.5000000000       -0.0000000000        0.5000000000
Pb               0.0000000000        0.5000000000       -0.0000000000
Pb              -0.0000000000        0.5000000000        0.5000000000
I                0.5781633455        0.0092280761        0.2500000000
I                0.4218366545        0.9907719239        0.7500000000
I                0.0781633455        0.4907719239        0.7500000000
I                0.9218366545        0.5092280761        0.2500000000
I                0.6904171888        0.3058640257        0.9661112017
I                0.3095828112        0.6941359743        0.4661112017
I                0.1904171888        0.1941359743        0.0338887983
I                0.8095828112        0.8058640257        0.5338887983
I                0.3095828112        0.6941359743        0.0338887983
I                0.6904171888        0.3058640257        0.5338887983
I                0.8095828112        0.8058640257        0.9661112017
I                0.1904171888        0.1941359743        0.4661112017



     Writing config-only to output data dir ./tmp/cspbi3_gamma_s1.save/ :
     XML data file
     NEW-OLD atomic charge density approx. for the potential
     New effective cutoffs (rho, wfc):  490.43   61.31

     total cpu time spent up to now is    25970.9 secs

     Self-consistent Calculation

     iteration #  1     ecut=    60.00 Ry     beta= 0.50
     Davidson diagonalization with overlap
     ethr =  1.00E-06,  avg # of iterations =  7.5

     Threshold (ethr) on eigenvalues was too large:
     Diagonalizing with lowered threshold

     Davidson diagonalization with overlap
     ethr =  8.76E-08,  avg # of iterations =  4.6

     total cpu time spent up to now is    26263.2 secs

     total energy              =   -8165.85485518 Ry
     estimated scf accuracy    <       0.00017830 Ry

     iteration #  2     ecut=    60.00 Ry     beta= 0.50
     Davidson diagonalization with overlap
     ethr =  1.01E-07,  avg # of iterations =  4.0

     total cpu time spent up to now is    26391.4 secs

     total energy              =   -8165.85499264 Ry
     estimated scf accuracy    <       0.00002087 Ry

     iteration #  3     ecut=    60.00 Ry     beta= 0.50
     Davidson diagonalization with overlap
     ethr =  1.19E-08,  avg # of iterations =  2.1

     total cpu time spent up to now is    26485.4 secs

     total energy              =   -8165.85502110 Ry
     estimated scf accuracy    <       0.00000869 Ry

     iteration #  4     ecut=    60.00 Ry     beta= 0.50
     Davidson diagonalization with overlap
     ethr =  4.94E-09,  avg # of iterations =  5.0

     total cpu time spent up to now is    26617.7 secs

     total energy              =   -8165.85502936 Ry
     estimated scf accuracy    <       0.00000782 Ry

     iteration #  5     ecut=    60.00 Ry     beta= 0.50
     Davidson diagonalization with overlap
     ethr =  4.44E-09,  avg # of iterations =  1.0

     total cpu time spent up to now is    26697.3 secs

     total energy              =   -8165.85503088 Ry
     estimated scf accuracy    <       0.00001124 Ry

     iteration #  6     ecut=    60.00 Ry     beta= 0.50
     Davidson diagonalization with overlap
     ethr =  4.44E-09,  avg # of iterations =  2.6

     total cpu time spent up to now is    26796.8 secs

     total energy              =   -8165.85503155 Ry
     estimated scf accuracy    <       0.00000024 Ry

     iteration #  7     ecut=    60.00 Ry     beta= 0.50
     Davidson diagonalization with overlap
     ethr =  1.36E-10,  avg # of iterations =  4.9

     total cpu time spent up to now is    26937.4 secs

     total energy              =   -8165.85503170 Ry
     estimated scf accuracy    <       0.00000012 Ry

     iteration #  8     ecut=    60.00 Ry     beta= 0.50
     Davidson diagonalization with overlap
     ethr =  6.66E-11,  avg # of iterations =  2.0

     total cpu time spent up to now is    27028.8 secs

     total energy              =   -8165.85503171 Ry
     estimated scf accuracy    <       0.00000003 Ry

     iteration #  9     ecut=    60.00 Ry     beta= 0.50
     Davidson diagonalization with overlap
     ethr =  1.92E-11,  avg # of iterations =  4.1

     total cpu time spent up to now is    27140.8 secs

     total energy              =   -8165.85503172 Ry
     estimated scf accuracy    <          1.1E-09 Ry

     iteration # 10     ecut=    60.00 Ry     beta= 0.50
     Davidson diagonalization with overlap
     ethr =  6.20E-13,  avg # of iterations =  7.5

     total cpu time spent up to now is    27373.4 secs

     total energy              =   -8165.85503172 Ry
     estimated scf accuracy    <          2.3E-09 Ry

     iteration # 11     ecut=    60.00 Ry     beta= 0.50
     Davidson diagonalization with overlap
     ethr =  6.20E-13,  avg # of iterations =  4.0

     total cpu time spent up to now is    27492.0 secs

     End of self-consistent calculation

          k = 0.0000 0.0000 0.0000 ( 50101 PWs)   bands (ev):

   -17.4443 -17.4435 -17.4426 -17.4421 -13.2294 -13.2237 -13.2221 -13.2216
   -13.2145 -13.2078 -13.2029 -13.2029 -13.1710 -13.1708 -13.1706 -13.1703
   -13.1689 -13.1687 -13.1685 -13.1683 -13.1653 -13.1650 -13.1645 -13.1642
    -8.8874  -8.6789  -8.4603  -8.4193  -8.3943  -8.3668  -8.3488  -8.3470
    -8.3423  -8.1600  -8.1569  -8.1527  -5.1023  -4.5603  -4.3034  -4.3001
    -4.2937  -4.2845  -4.2815  -4.2805  -4.2778  -4.2713  -4.2697  -4.2532
    -4.2335  -4.2320  -4.0746  -3.5944  -0.1431  -0.0738  -0.0409  -0.0052
     0.0873   0.1707   1.0158   1.2921   1.3095   1.3104   1.3167   1.3825
     1.5894   1.7688   1.8186   1.8597   1.8928   1.9063   1.9572   1.9615
     1.9800   1.9805   1.9845   2.0240   2.0327   2.1684   2.2889   2.2969
     2.2973   2.3220   2.3272   2.4124   2.5705   2.5845   2.8270   3.2989

          k = 0.0000 0.0000-0.3476 ( 50118 PWs)   bands (ev):

   -17.4439 -17.4439 -17.4424 -17.4424 -13.2222 -13.2222 -13.2220 -13.2220
   -13.2154 -13.2154 -13.2029 -13.2029 -13.1709 -13.1709 -13.1704 -13.1704
   -13.1687 -13.1687 -13.1685 -13.1685 -13.1651 -13.1651 -13.1644 -13.1644
    -8.8089  -8.8089  -8.4285  -8.4285  -8.3573  -8.3573  -8.3535  -8.3535
    -8.2558  -8.2558  -8.1545  -8.1545  -4.8453  -4.8453  -4.2996  -4.2996
    -4.2934  -4.2934  -4.2757  -4.2757  -4.2553  -4.2553  -4.2505  -4.2505
    -4.2467  -4.2467  -3.8948  -3.8948  -0.0105  -0.0105   0.0081   0.0081
     0.6383   0.6383   0.8787   0.8787   1.1522   1.1522   1.3792   1.3792
     1.4477   1.4477   1.7980   1.7980   1.8896   1.8896   1.9709   1.9709
     1.9999   1.9999   2.0339   2.0339   2.1655   2.1655   2.2005   2.2005
     2.2836   2.2836   2.3085   2.3085   2.4867   2.4867   2.9145   2.9145

          k = 0.0000 0.3236 0.0000 ( 50121 PWs)   bands (ev):

   -17.4438 -17.4432 -17.4430 -17.4425 -13.2279 -13.2249 -13.2174 -13.2172
   -13.2129 -13.2094 -13.2077 -13.2076 -13.1709 -13.1707 -13.1706 -13.1704
   -13.1689 -13.1688 -13.1684 -13.1683 -13.1651 -13.1648 -13.1647 -13.1644
    -8.8194  -8.6399  -8.6060  -8.4417  -8.4093  -8.3992  -8.3081  -8.2956
    -8.2450  -8.2087  -8.2005  -8.1745  -4.8863  -4.4610  -4.4090  -4.3060
    -4.2973  -4.2830  -4.2761  -4.2668  -4.2606  -4.2592  -4.2565  -4.2516
    -4.2501  -4.1964  -4.1825  -3.8577  -0.0887   0.0060   0.2161   0.3951
     0.4076   0.4928   0.9739   1.0405   1.1856   1.2036   1.2319   1.2859
     1.3839   1.4966   1.6130   1.6414   1.8291   1.8749   1.8989   1.9460
     1.9582   1.9704   2.0515   2.0898   2.0957   2.1722   2.1726   2.1870
     2.2429   2.2633   2.3206   2.3879   2.4712   2.5636   2.6416   2.8559

          k = 0.0000 0.3236-0.3476 ( 50184 PWs)   bands (ev):

   -17.4435 -17.4435 -17.4427 -17.4427 -13.2204 -13.2204 -13.2181 -13.2181
   -13.2163 -13.2163 -13.2077 -13.2077 -13.1708 -13.1708 -13.1705 -13.1705
   -13.1687 -13.1687 -13.1686 -13.1686 -13.1650 -13.1650 -13.1646 -13.1646
    -8.7413  -8.7413  -8.5741  -8.5741  -8.3084  -8.3084  -8.2896  -8.2896
    -8.2564  -8.2564  -8.2040  -8.2040  -4.6492  -4.6492  -4.3112  -4.3112
    -4.2863  -4.2863  -4.2856  -4.2856  -4.2675  -4.2675  -4.2531  -4.2531
    -4.2353  -4.2353  -4.1140  -4.1140   0.2881   0.2881   0.3909   0.3909
     0.7314   0.7314   0.7615   0.7615   1.0628   1.0628   1.1287   1.1287
     1.4881   1.4881   1.6071   1.6071   1.7609   1.7609   1.7671   1.7671
     1.8692   1.8692   1.9594   1.9594   2.2207   2.2207   2.2395   2.2395
     2.3035   2.3035   2.3225   2.3225   2.5152   2.5152   2.5380   2.5380

          k = 0.3315 0.0000 0.0000 ( 50214 PWs)   bands (ev):

   -17.4439 -17.4433 -17.4429 -17.4424 -13.2279 -13.2249 -13.2174 -13.2172
   -13.2129 -13.2094 -13.2077 -13.2076 -13.1709 -13.1707 -13.1707 -13.1704
   -13.1689 -13.1688 -13.1684 -13.1683 -13.1651 -13.1648 -13.1647 -13.1645
    -8.8177  -8.6366  -8.6049  -8.4383  -8.4065  -8.3996  -8.3164  -8.2991
    -8.2460  -8.2096  -8.2016  -8.1766  -4.8825  -4.4392  -4.3949  -4.2975
    -4.2884  -4.2872  -4.2811  -4.2796  -4.2778  -4.2539  -4.2520  -4.2506
    -4.2448  -4.1964  -4.1964  -3.8665  -0.0863   0.0165   0.2263   0.3725
     0.3766   0.5281   0.8944   1.0818   1.1829   1.1998   1.2306   1.3489
     1.3725   1.5010   1.6151   1.6540   1.8584   1.8836   1.9154   1.9297
     1.9706   1.9869   2.0355   2.0477   2.1137   2.1454   2.1700   2.2031
     2.2562   2.2959   2.3518   2.3866   2.4517   2.4581   2.6308   2.8254

          k = 0.3315 0.0000-0.3476 ( 50200 PWs)   bands (ev):

   -17.4436 -17.4436 -17.4427 -17.4427 -13.2204 -13.2204 -13.2181 -13.2181
   -13.2163 -13.2163 -13.2077 -13.2077 -13.1708 -13.1708 -13.1706 -13.1706
   -13.1687 -13.1687 -13.1686 -13.1686 -13.1650 -13.1650 -13.1646 -13.1646
    -8.7402  -8.7402  -8.5703  -8.5703  -8.3098  -8.3098  -8.2913  -8.2913
    -8.2597  -8.2597  -8.2051  -8.2051  -4.6421  -4.6421  -4.3019  -4.3019
    -4.2969  -4.2969  -4.2750  -4.2750  -4.2519  -4.2519  -4.2487  -4.2487
    -4.2430  -4.2430  -4.1367  -4.1367   0.2952   0.2952   0.3904   0.3904
     0.6691   0.6691   0.7994   0.7994   1.0150   1.0150   1.1588   1.1588
     1.5346   1.5346   1.6016   1.6016   1.7383   1.7383   1.8391   1.8391
     1.9354   1.9354   1.9826   1.9826   2.1688   2.1688   2.2682   2.2682
     2.2896   2.2896   2.3151   2.3151   2.4315   2.4315   2.4852   2.4852

          k = 0.3315 0.3236 0.0000 ( 50152 PWs)   bands (ev):

   -17.4436 -17.4433 -17.4429 -17.4426 -13.2283 -13.2266 -13.2179 -13.2145
   -13.2137 -13.2091 -13.2089 -13.2060 -13.1708 -13.1707 -13.1706 -13.1705
   -13.1689 -13.1688 -13.1684 -13.1684 -13.1650 -13.1648 -13.1647 -13.1645
    -8.7644  -8.6625  -8.5364  -8.4093  -8.4041  -8.3926  -8.3735  -8.3700
    -8.3033  -8.2633  -8.1675  -8.1397  -4.7517  -4.5326  -4.3422  -4.2922
    -4.2879  -4.2792  -4.2736  -4.2716  -4.2650  -4.2626  -4.2562  -4.2524
    -4.2482  -4.2232  -4.1114  -3.9414  -0.0701  -0.0192   0.0307   0.1810
     0.3930   0.5663   0.9088   1.0962   1.1097   1.1121   1.2213   1.5068
     1.5263   1.6032   1.7086   1.8158   1.8413   1.8874   1.8912   1.9319
     1.9320   2.0174   2.0518   2.0564   2.0974   2.1007   2.1484   2.1582
     2.1616   2.2395   2.2498   2.3159   2.4902   2.5630   2.6795   2.8712

          k = 0.3315 0.3236-0.3476 ( 50168 PWs)   bands (ev):

   -17.4433 -17.4433 -17.4429 -17.4429 -13.2220 -13.2220 -13.2198 -13.2198
   -13.2124 -13.2124 -13.2083 -13.2083 -13.1707 -13.1707 -13.1706 -13.1706
   -13.1686 -13.1686 -13.1686 -13.1686 -13.1649 -13.1649 -13.1647 -13.1647
    -8.6845  -8.6845  -8.5842  -8.5842  -8.3742  -8.3742  -8.3162  -8.3162
    -8.2277  -8.2277  -8.2058  -8.2058  -4.5318  -4.5318  -4.3558  -4.3558
    -4.2866  -4.2866  -4.2723  -4.2723  -4.2576  -4.2576  -4.2453  -4.2453
    -4.2286  -4.2286  -4.1701  -4.1701   0.0997   0.0997   0.4561   0.4561
     0.6445   0.6445   0.7859   0.7859   0.9942   0.9942   1.1959   1.1959
     1.5020   1.5020   1.6161   1.6161   1.8056   1.8056   1.8737   1.8737
     1.9844   1.9844   2.0782   2.0782   2.1269   2.1269   2.1996   2.1996
     2.2467   2.2467   2.3072   2.3072   2.4342   2.4342   2.5479   2.5479

     highest occupied level (ev):     3.2989

!    total energy              =   -8165.85503172 Ry
     estimated scf accuracy    <          3.7E-11 Ry

     The total energy is the sum of the following terms:
     one-electron contribution =    -332.14609546 Ry
     hartree contribution      =     253.95383167 Ry
     xc contribution           =    -792.71658426 Ry
     ewald contribution        =    -645.32852914 Ry
     one-center paw contrib.   =   -6649.61765453 Ry

     convergence has been achieved in  11 iterations

     Forces acting on atoms (cartesian axes, Ry/au):

     atom    1 type  1   force =    -0.00027399   -0.00023402    0.00000000
     atom    2 type  1   force =     0.00027399    0.00023402    0.00000000
     atom    3 type  1   force =    -0.00027399    0.00023402    0.00000000
     atom    4 type  1   force =     0.00027399   -0.00023402   -0.00000000
     atom    5 type  2   force =     0.00000000    0.00000000    0.00000000
     atom    6 type  2   force =    -0.00000000    0.00000000    0.00000000
     atom    7 type  2   force =     0.00000000    0.00000000    0.00000000
     atom    8 type  2   force =     0.00000000    0.00000000    0.00000000
     atom    9 type  3   force =     0.00091567   -0.00049202   -0.00000000
     atom   10 type  3   force =    -0.00091567    0.00049202   -0.00000000
     atom   11 type  3   force =     0.00091567    0.00049202   -0.00000000
     atom   12 type  3   force =    -0.00091567   -0.00049202   -0.00000000
     atom   13 type  3   force =     0.00139392    0.00028199   -0.00096894
     atom   14 type  3   force =    -0.00139392   -0.00028199   -0.00096894
     atom   15 type  3   force =     0.00139392   -0.00028199    0.00096894
     atom   16 type  3   force =    -0.00139392    0.00028199    0.00096894
     atom   17 type  3   force =    -0.00139392   -0.00028199    0.00096894
     atom   18 type  3   force =     0.00139392    0.00028199    0.00096894
     atom   19 type  3   force =    -0.00139392    0.00028199   -0.00096894
     atom   20 type  3   force =     0.00139392   -0.00028199   -0.00096894

     Total force =     0.005342     Total SCF correction =     0.000006


     Computing stress (Cartesian axis) and pressure

          total   stress  (Ry/bohr**3)                   (kbar)     P=       -1.36
  -0.00002520   0.00000000   0.00000000           -3.71        0.00        0.00
   0.00000000  -0.00000825   0.00000000            0.00       -1.21        0.00
   0.00000000   0.00000000   0.00000571            0.00        0.00        0.84

     Energy error            =      3.2E-04 Ry
     Gradient error          =      1.4E-03 Ry/Bohr
     Cell gradient error     =      3.7E+00 kbar

     number of scf cycles    =  21
     number of bfgs steps    =  20

     enthalpy           old  =   -8165.8547098167 Ry
     enthalpy           new  =   -8165.8550317217 Ry

     CASE: enthalpy          _new < enthalpy          _old

     new trust radius        =       0.0528694658 bohr
     new conv_thr            =       0.0000000014 Ry

     new unit-cell volume =   6314.61159 a.u.^3 (   935.72890 Ang^3 )
     density =      5.11663 g/cm^3

CELL_PARAMETERS (angstrom)
   8.600083883   0.000000000   0.000000000
   0.000000000   8.829016246   0.000000000
   0.000000000   0.000000000  12.323527477

ATOMIC_POSITIONS (crystal)
Cs               0.4772024333        0.4267748410        0.2500000000
Cs               0.5227975667        0.5732251590        0.7500000000
Cs              -0.0227975667        0.0732251590        0.7500000000
Cs               1.0227975667        0.9267748410        0.2500000000
Pb               0.5000000000        0.0000000000       -0.0000000000
Pb               0.5000000000       -0.0000000000        0.5000000000
Pb               0.0000000000        0.5000000000       -0.0000000000
Pb              -0.0000000000        0.5000000000        0.5000000000
I                0.5800578993        0.0094675666        0.2500000000
I                0.4199421007        0.9905324334        0.7500000000
I                0.0800578993        0.4905324334        0.7500000000
I                0.9199421007        0.5094675666        0.2500000000
I                0.6896399335        0.3056102800        0.9659573793
I                0.3103600665        0.6943897200        0.4659573793
I                0.1896399335        0.1943897200        0.0340426207
I                0.8103600665        0.8056102800        0.5340426207
I                0.3103600665        0.6943897200        0.0340426207
I                0.6896399335        0.3056102800        0.5340426207
I                0.8103600665        0.8056102800        0.9659573793
I                0.1896399335        0.1943897200        0.4659573793



     Writing config-only to output data dir ./tmp/cspbi3_gamma_s1.save/ :
     XML data file
     NEW-OLD atomic charge density approx. for the potential
     New effective cutoffs (rho, wfc):  491.38   61.43

     total cpu time spent up to now is    27626.9 secs

     Self-consistent Calculation

     iteration #  1     ecut=    60.00 Ry     beta= 0.50
     Davidson diagonalization with overlap
     ethr =  1.00E-06,  avg # of iterations =  7.5

     total cpu time spent up to now is    27825.1 secs

     total energy              =   -8165.85511512 Ry
     estimated scf accuracy    <       0.00030031 Ry

     iteration #  2     ecut=    60.00 Ry     beta= 0.50
     Davidson diagonalization with overlap
     ethr =  1.71E-07,  avg # of iterations =  4.2

     total cpu time spent up to now is    27966.9 secs

     total energy              =   -8165.85533024 Ry
     estimated scf accuracy    <       0.00003208 Ry

     iteration #  3     ecut=    60.00 Ry     beta= 0.50
     Davidson diagonalization with overlap
     ethr =  1.82E-08,  avg # of iterations =  4.4

     total cpu time spent up to now is    28079.3 secs

     total energy              =   -8165.85537199 Ry
     estimated scf accuracy    <       0.00002120 Ry

     iteration #  4     ecut=    60.00 Ry     beta= 0.50
     Davidson diagonalization with overlap
     ethr =  1.20E-08,  avg # of iterations =  4.4

     total cpu time spent up to now is    28185.0 secs

     total energy              =   -8165.85538587 Ry
     estimated scf accuracy    <       0.00001057 Ry

     iteration #  5     ecut=    60.00 Ry     beta= 0.50
     Davidson diagonalization with overlap
     ethr =  6.01E-09,  avg # of iterations =  4.6

     total cpu time spent up to now is    28278.2 secs

     total energy              =   -8165.85538996 Ry
     estimated scf accuracy    <       0.00000200 Ry

     iteration #  6     ecut=    60.00 Ry     beta= 0.50
     Davidson diagonalization with overlap
     ethr =  1.14E-09,  avg # of iterations =  5.0

     total cpu time spent up to now is    28405.7 secs

     total energy              =   -8165.85539093 Ry
     estimated scf accuracy    <       0.00000004 Ry

     iteration #  7     ecut=    60.00 Ry     beta= 0.50
     Davidson diagonalization with overlap
     ethr =  2.08E-11,  avg # of iterations =  6.4

     total cpu time spent up to now is    28565.0 secs

     total energy              =   -8165.85539104 Ry
     estimated scf accuracy    <          2.6E-09 Ry

     iteration #  8     ecut=    60.00 Ry     beta= 0.50
     Davidson diagonalization with overlap
     ethr =  1.47E-12,  avg # of iterations =  6.2

     total cpu time spent up to now is    28729.3 secs

     total energy              =   -8165.85539106 Ry
     estimated scf accuracy    <          4.2E-09 Ry

     iteration #  9     ecut=    60.00 Ry     beta= 0.50
     Davidson diagonalization with overlap
     ethr =  1.47E-12,  avg # of iterations =  3.9

     total cpu time spent up to now is    28830.1 secs

     End of self-consistent calculation

          k = 0.0000 0.0000 0.0000 ( 50101 PWs)   bands (ev):

   -17.4013 -17.4006 -17.3996 -17.3990 -13.1912 -13.1860 -13.1850 -13.1838
   -13.1762 -13.1694 -13.1653 -13.1653 -13.1326 -13.1324 -13.1322 -13.1319
   -13.1308 -13.1306 -13.1303 -13.1301 -13.1265 -13.1262 -13.1257 -13.1254
    -8.8628  -8.6571  -8.4272  -8.3891  -8.3611  -8.3427  -8.3227  -8.3193
    -8.3152  -8.1292  -8.1290  -8.1240  -5.0736  -4.5332  -4.2634  -4.2603
    -4.2534  -4.2431  -4.2418  -4.2416  -4.2387  -4.2308  -4.2286  -4.2113
    -4.1920  -4.1903  -4.0335  -3.5563  -0.1133  -0.0497  -0.0223   0.0181
     0.1087   0.2087   1.0368   1.3175   1.3335   1.3424   1.3444   1.4086
     1.6194   1.7940   1.8459   1.8947   1.9266   1.9333   1.9856   1.9900
     2.0126   2.0138   2.0197   2.0469   2.0527   2.2046   2.3231   2.3287
     2.3342   2.3503   2.3603   2.4402   2.6059   2.6167   2.8708   3.3390

          k = 0.0000 0.0000-0.3480 ( 50118 PWs)   bands (ev):

   -17.4009 -17.4009 -17.3993 -17.3993 -13.1851 -13.1851 -13.1837 -13.1837
   -13.1770 -13.1770 -13.1653 -13.1653 -13.1325 -13.1325 -13.1321 -13.1321
   -13.1305 -13.1305 -13.1304 -13.1304 -13.1263 -13.1263 -13.1255 -13.1255
    -8.7848  -8.7848  -8.3953  -8.3953  -8.3331  -8.3331  -8.3267  -8.3267
    -8.2246  -8.2246  -8.1263  -8.1263  -4.8173  -4.8173  -4.2598  -4.2598
    -4.2543  -4.2543  -4.2360  -4.2360  -4.2141  -4.2141  -4.2091  -4.2091
    -4.2044  -4.2044  -3.8556  -3.8556   0.0134   0.0134   0.0265   0.0265
     0.6654   0.6654   0.9096   0.9096   1.1771   1.1771   1.4079   1.4079
     1.4809   1.4809   1.8244   1.8244   1.9198   1.9198   1.9969   1.9969
     2.0324   2.0324   2.0662   2.0662   2.1935   2.1935   2.2365   2.2365
     2.3128   2.3128   2.3421   2.3421   2.5216   2.5216   2.9582   2.9582

          k = 0.0000 0.3238 0.0000 ( 50121 PWs)   bands (ev):

   -17.4009 -17.4002 -17.4000 -17.3994 -13.1896 -13.1866 -13.1802 -13.1799
   -13.1747 -13.1710 -13.1703 -13.1700 -13.1325 -13.1323 -13.1323 -13.1320
   -13.1307 -13.1307 -13.1303 -13.1302 -13.1263 -13.1260 -13.1259 -13.1256
    -8.7942  -8.6128  -8.5836  -8.4181  -8.3772  -8.3661  -8.2804  -8.2681
    -8.2159  -8.1805  -8.1723  -8.1435  -4.8554  -4.4253  -4.3787  -4.2670
    -4.2580  -4.2427  -4.2368  -4.2264  -4.2198  -4.2175  -4.2150  -4.2105
    -4.2091  -4.1555  -4.1429  -3.8227  -0.0562   0.0374   0.2402   0.4231
     0.4332   0.5147   0.9983   1.0659   1.2085   1.2295   1.2571   1.3084
     1.4163   1.5279   1.6436   1.6761   1.8532   1.9001   1.9249   1.9747
     1.9897   1.9979   2.0844   2.1175   2.1237   2.2089   2.2112   2.2205
     2.2760   2.2980   2.3489   2.4235   2.5081   2.6014   2.6756   2.8913

          k = 0.0000 0.3238-0.3480 ( 50184 PWs)   bands (ev):

   -17.4005 -17.4005 -17.3997 -17.3997 -13.1821 -13.1821 -13.1807 -13.1807
   -13.1782 -13.1782 -13.1702 -13.1702 -13.1324 -13.1324 -13.1322 -13.1322
   -13.1305 -13.1305 -13.1304 -13.1304 -13.1261 -13.1261 -13.1258 -13.1258
    -8.7165  -8.7165  -8.5470  -8.5470  -8.2815  -8.2815  -8.2602  -8.2602
    -8.2252  -8.2252  -8.1758  -8.1758  -4.6194  -4.6194  -4.2732  -4.2732
    -4.2468  -4.2468  -4.2461  -4.2461  -4.2272  -4.2272  -4.2121  -4.2121
    -4.1934  -4.1934  -4.0752  -4.0752   0.3119   0.3119   0.4147   0.4147
     0.7593   0.7593   0.7910   0.7910   1.0867   1.0867   1.1552   1.1552
     1.5161   1.5161   1.6368   1.6368   1.7937   1.7937   1.7973   1.7973
     1.8979   1.8979   1.9892   1.9892   2.2531   2.2531   2.2674   2.2674
     2.3406   2.3406   2.3563   2.3563   2.5526   2.5526   2.5777   2.5777

          k = 0.3324 0.0000 0.0000 ( 50214 PWs)   bands (ev):

   -17.4009 -17.4004 -17.3998 -17.3994 -13.1896 -13.1866 -13.1802 -13.1799
   -13.1747 -13.1710 -13.1703 -13.1700 -13.1325 -13.1323 -13.1323 -13.1320
   -13.1307 -13.1307 -13.1303 -13.1302 -13.1263 -13.1260 -13.1259 -13.1256
    -8.7921  -8.6085  -8.5820  -8.4128  -8.3737  -8.3665  -8.2914  -8.2737
    -8.2151  -8.1832  -8.1740  -8.1458  -4.8514  -4.4024  -4.3634  -4.2582
    -4.2492  -4.2468  -4.2406  -4.2384  -4.2377  -4.2122  -4.2114  -4.2091
    -4.2027  -4.1588  -4.1549  -3.8323  -0.0534   0.0500   0.2467   0.3975
     0.3992   0.5570   0.9217   1.1093   1.2120   1.2255   1.2596   1.3815
     1.4039   1.5267   1.6478   1.6794   1.8848   1.9104   1.9419   1.9556
     1.9986   2.0161   2.0625   2.0802   2.1451   2.1690   2.2028   2.2375
     2.2866   2.3273   2.3810   2.4174   2.4893   2.4935   2.6649   2.8616

          k = 0.3324 0.0000-0.3480 ( 50200 PWs)   bands (ev):

   -17.4006 -17.4006 -17.3996 -17.3996 -13.1821 -13.1821 -13.1807 -13.1807
   -13.1782 -13.1782 -13.1702 -13.1702 -13.1324 -13.1324 -13.1322 -13.1322
   -13.1305 -13.1305 -13.1304 -13.1304 -13.1261 -13.1261 -13.1258 -13.1258
    -8.7151  -8.7151  -8.5421  -8.5421  -8.2843  -8.2843  -8.2610  -8.2610
    -8.2289  -8.2289  -8.1780  -8.1780  -4.6116  -4.6116  -4.2623  -4.2623
    -4.2578  -4.2578  -4.2349  -4.2349  -4.2110  -4.2110  -4.2069  -4.2069
    -4.2019  -4.2019  -4.0998  -4.0998   0.3158   0.3158   0.4171   0.4171
     0.6951   0.6951   0.8303   0.8303   1.0438   1.0438   1.1889   1.1889
     1.5641   1.5641   1.6310   1.6310   1.7697   1.7697   1.8675   1.8675
     1.9635   1.9635   2.0132   2.0132   2.1991   2.1991   2.2985   2.2985
     2.3210   2.3210   2.3454   2.3454   2.4647   2.4647   2.5233   2.5233

          k = 0.3324 0.3238 0.0000 ( 50152 PWs)   bands (ev):

   -17.4006 -17.4003 -17.3999 -17.3996 -13.1902 -13.1884 -13.1804 -13.1768
   -13.1762 -13.1716 -13.1707 -13.1680 -13.1325 -13.1324 -13.1322 -13.1321
   -13.1307 -13.1307 -13.1303 -13.1302 -13.1262 -13.1260 -13.1259 -13.1257
    -8.7382  -8.6346  -8.5129  -8.3780  -8.3714  -8.3674  -8.3482  -8.3432
    -8.2766  -8.2363  -8.1369  -8.1090  -4.7190  -4.4975  -4.3070  -4.2525
    -4.2480  -4.2393  -4.2328  -4.2315  -4.2247  -4.2219  -4.2148  -4.2106
    -4.2072  -4.1821  -4.0753  -3.9071  -0.0373   0.0135   0.0539   0.2030
     0.4188   0.5892   0.9345   1.1246   1.1374   1.1391   1.2468   1.5358
     1.5520   1.6324   1.7337   1.8438   1.8707   1.9148   1.9228   1.9586
     1.9597   2.0486   2.0828   2.0877   2.1276   2.1323   2.1802   2.1920
     2.1942   2.2723   2.2831   2.3521   2.5248   2.5988   2.7137   2.9073

          k = 0.3324 0.3238-0.3480 ( 50168 PWs)   bands (ev):

   -17.4003 -17.4003 -17.3999 -17.3999 -13.1841 -13.1841 -13.1817 -13.1817
   -13.1747 -13.1747 -13.1707 -13.1707 -13.1323 -13.1323 -13.1322 -13.1322
   -13.1305 -13.1305 -13.1304 -13.1304 -13.1260 -13.1260 -13.1259 -13.1259
    -8.6584  -8.6584  -8.5559  -8.5559  -8.3491  -8.3491  -8.2887  -8.2887
    -8.1975  -8.1975  -8.1761  -8.1761  -4.4998  -4.4998  -4.3194  -4.3194
    -4.2467  -4.2467  -4.2323  -4.2323  -4.2170  -4.2170  -4.2039  -4.2039
    -4.1877  -4.1877  -4.1308  -4.1308   0.1220   0.1220   0.4815   0.4815
     0.6709   0.6709   0.8144   0.8144   1.0207   1.0207   1.2231   1.2231
     1.5318   1.5318   1.6451   1.6451   1.8368   1.8368   1.9008   1.9008
     2.0143   2.0143   2.1094   2.1094   2.1601   2.1601   2.2303   2.2303
     2.2803   2.2803   2.3413   2.3413   2.4699   2.4699   2.5857   2.5857

     highest occupied level (ev):     3.3390

!    total energy              =   -8165.85539107 Ry
     estimated scf accuracy    <          2.4E-10 Ry

     The total energy is the sum of the following terms:
     one-electron contribution =    -330.68892438 Ry
     hartree contribution      =     253.45813196 Ry
     xc contribution           =    -792.73838544 Ry
     ewald contribution        =    -646.26771082 Ry
     one-center paw contrib.   =   -6649.61850238 Ry

     convergence has been achieved in   9 iterations

     Forces acting on atoms (cartesian axes, Ry/au):

     atom    1 type  1   force =    -0.00027183    0.00021231    0.00000000
     atom    2 type  1   force =     0.00027183   -0.00021231    0.00000000
     atom    3 type  1   force =    -0.00027183   -0.00021231    0.00000000
     atom    4 type  1   force =     0.00027183    0.00021231    0.00000000
     atom    5 type  2   force =    -0.00000000    0.00000000    0.00000000
     atom    6 type  2   force =     0.00000000    0.00000000   -0.00000000
     atom    7 type  2   force =     0.00000000    0.00000000    0.00000000
     atom    8 type  2   force =     0.00000000   -0.00000000    0.00000000
     atom    9 type  3   force =     0.00077988   -0.00075834    0.00000000
     atom   10 type  3   force =    -0.00077988    0.00075834    0.00000000
     atom   11 type  3   force =     0.00077988    0.00075834    0.00000000
     atom   12 type  3   force =    -0.00077988   -0.00075834    0.00000000
     atom   13 type  3   force =     0.00180732    0.00098599   -0.00120587
     atom   14 type  3   force =    -0.00180732   -0.00098599   -0.00120587
     atom   15 type  3   force =     0.00180732   -0.00098599    0.00120587
     atom   16 type  3   force =    -0.00180732    0.00098599    0.00120587
     atom   17 type  3   force =    -0.00180732   -0.00098599    0.00120587
     atom   18 type  3   force =     0.00180732    0.00098599    0.00120587
     atom   19 type  3   force =    -0.00180732    0.00098599   -0.00120587
     atom   20 type  3   force =     0.00180732   -0.00098599   -0.00120587

     Total force =     0.007124     Total SCF correction =     0.000018


     Computing stress (Cartesian axis) and pressure

          total   stress  (Ry/bohr**3)                   (kbar)     P=       -0.76
  -0.00002191   0.00000000   0.00000000           -3.22        0.00        0.00
   0.00000000  -0.00000110   0.00000000            0.00       -0.16        0.00
   0.00000000   0.00000000   0.00000742            0.00        0.00        1.09

     Energy error            =      3.6E-04 Ry
     Gradient error          =      1.8E-03 Ry/Bohr
     Cell gradient error     =      3.2E+00 kbar

     number of scf cycles    =  22
     number of bfgs steps    =  21

     enthalpy           old  =   -8165.8550317217 Ry
     enthalpy           new  =   -8165.8553910661 Ry

     CASE: enthalpy          _new < enthalpy          _old

     new trust radius        =       0.0805419167 bohr
     new conv_thr            =       0.0000000018 Ry

     new unit-cell volume =   6277.41989 a.u.^3 (   930.21766 Ang^3 )
     density =      5.14695 g/cm^3

CELL_PARAMETERS (angstrom)
   8.556500461   0.000000000   0.000000000
   0.000000000   8.829470544   0.000000000
   0.000000000   0.000000000  12.312712478

ATOMIC_POSITIONS (crystal)
Cs               0.4748900368        0.4244757364        0.2500000000
Cs               0.5251099632        0.5755242636        0.7500000000
Cs              -0.0251099632        0.0755242636        0.7500000000
Cs               1.0251099632        0.9244757364        0.2500000000
Pb               0.5000000000        0.0000000000       -0.0000000000
Pb               0.5000000000       -0.0000000000        0.5000000000
Pb               0.0000000000        0.5000000000       -0.0000000000
Pb              -0.0000000000        0.5000000000        0.5000000000
I                0.5824876317        0.0093797023        0.2500000000
I                0.4175123683        0.9906202977        0.7500000000
I                0.0824876317        0.4906202977        0.7500000000
I                0.9175123683        0.5093797023        0.2500000000
I                0.6889286883        0.3054483058        0.9655358208
I                0.3110713117        0.6945516942        0.4655358208
I                0.1889286883        0.1945516942        0.0344641792
I                0.8110713117        0.8054483058        0.5344641792
I                0.3110713117        0.6945516942        0.0344641792
I                0.6889286883        0.3054483058        0.5344641792
I                0.8110713117        0.8054483058        0.9655358208
I                0.1889286883        0.1945516942        0.4655358208



     Writing config-only to output data dir ./tmp/cspbi3_gamma_s1.save/ :
     XML data file
     NEW-OLD atomic charge density approx. for the potential
     New effective cutoffs (rho, wfc):  492.25   61.54

     total cpu time spent up to now is    28964.3 secs

     Self-consistent Calculation

     iteration #  1     ecut=    60.00 Ry     beta= 0.50
     Davidson diagonalization with overlap
     ethr =  1.00E-06,  avg # of iterations =  7.0

     total cpu time spent up to now is    29182.4 secs

     total energy              =   -8165.85540800 Ry
     estimated scf accuracy    <       0.00072802 Ry

     iteration #  2     ecut=    60.00 Ry     beta= 0.50
     Davidson diagonalization with overlap
     ethr =  4.14E-07,  avg # of iterations =  4.0

     total cpu time spent up to now is    29308.4 secs

     total energy              =   -8165.85582909 Ry
     estimated scf accuracy    <       0.00010594 Ry

     iteration #  3     ecut=    60.00 Ry     beta= 0.50
     Davidson diagonalization with overlap
     ethr =  6.02E-08,  avg # of iterations =  3.2

     total cpu time spent up to now is    29400.7 secs

     total energy              =   -8165.85590553 Ry
     estimated scf accuracy    <       0.00004173 Ry

     iteration #  4     ecut=    60.00 Ry     beta= 0.50
     Davidson diagonalization with overlap
     ethr =  2.37E-08,  avg # of iterations =  5.0

     total cpu time spent up to now is    29526.7 secs

     total energy              =   -8165.85592449 Ry
     estimated scf accuracy    <       0.00003345 Ry

     iteration #  5     ecut=    60.00 Ry     beta= 0.50
     Davidson diagonalization with overlap
     ethr =  1.90E-08,  avg # of iterations =  1.2

     total cpu time spent up to now is    29608.1 secs

     total energy              =   -8165.85593148 Ry
     estimated scf accuracy    <       0.00003419 Ry

     iteration #  6     ecut=    60.00 Ry     beta= 0.50
     Davidson diagonalization with overlap
     ethr =  1.90E-08,  avg # of iterations =  2.0

     total cpu time spent up to now is    29698.3 secs

     total energy              =   -8165.85593554 Ry
     estimated scf accuracy    <       0.00000832 Ry

     iteration #  7     ecut=    60.00 Ry     beta= 0.50
     Davidson diagonalization with overlap
     ethr =  4.73E-09,  avg # of iterations =  4.2

     total cpu time spent up to now is    29797.5 secs

     total energy              =   -8165.85593568 Ry
     estimated scf accuracy    <       0.00000425 Ry

     iteration #  8     ecut=    60.00 Ry     beta= 0.50
     Davidson diagonalization with overlap
     ethr =  2.41E-09,  avg # of iterations =  1.1

     total cpu time spent up to now is    29884.0 secs

     total energy              =   -8165.85593544 Ry
     estimated scf accuracy    <       0.00000272 Ry

     iteration #  9     ecut=    60.00 Ry     beta= 0.50
     Davidson diagonalization with overlap
     ethr =  1.54E-09,  avg # of iterations =  1.1

     total cpu time spent up to now is    29966.4 secs

     total energy              =   -8165.85593536 Ry
     estimated scf accuracy    <       0.00000173 Ry

     iteration # 10     ecut=    60.00 Ry     beta= 0.50
     Davidson diagonalization with overlap
     ethr =  9.80E-10,  avg # of iterations =  1.1

     total cpu time spent up to now is    30050.6 secs

     total energy              =   -8165.85593495 Ry
     estimated scf accuracy    <       0.00000130 Ry

     iteration # 11     ecut=    60.00 Ry     beta= 0.50
     Davidson diagonalization with overlap
     ethr =  7.37E-10,  avg # of iterations =  2.0

     total cpu time spent up to now is    30150.8 secs

     total energy              =   -8165.85593507 Ry
     estimated scf accuracy    <       0.00000019 Ry

     iteration # 12     ecut=    60.00 Ry     beta= 0.50
     Davidson diagonalization with overlap
     ethr =  1.08E-10,  avg # of iterations =  3.6

     total cpu time spent up to now is    30250.0 secs

     total energy              =   -8165.85593507 Ry
     estimated scf accuracy    <       0.00000012 Ry

     iteration # 13     ecut=    60.00 Ry     beta= 0.50
     Davidson diagonalization with overlap
     ethr =  7.10E-11,  avg # of iterations =  2.1

     total cpu time spent up to now is    30347.6 secs

     total energy              =   -8165.85593507 Ry
     estimated scf accuracy    <       0.00000005 Ry

     iteration # 14     ecut=    60.00 Ry     beta= 0.50
     Davidson diagonalization with overlap
     ethr =  2.85E-11,  avg # of iterations =  3.9

     total cpu time spent up to now is    30479.3 secs

     total energy              =   -8165.85593509 Ry
     estimated scf accuracy    <       0.00000005 Ry

     iteration # 15     ecut=    60.00 Ry     beta= 0.50
     Davidson diagonalization with overlap
     ethr =  2.72E-11,  avg # of iterations =  1.2

     total cpu time spent up to now is    30561.0 secs

     total energy              =   -8165.85593508 Ry
     estimated scf accuracy    <       0.00000004 Ry

     iteration # 16     ecut=    60.00 Ry     beta= 0.50
     Davidson diagonalization with overlap
     ethr =  2.22E-11,  avg # of iterations =  1.0

     total cpu time spent up to now is    30640.5 secs

     total energy              =   -8165.85593508 Ry
     estimated scf accuracy    <       0.00000003 Ry

     iteration # 17     ecut=    60.00 Ry     beta= 0.50
     Davidson diagonalization with overlap
     ethr =  1.49E-11,  avg # of iterations =  1.0

     total cpu time spent up to now is    30720.0 secs

     total energy              =   -8165.85593507 Ry
     estimated scf accuracy    <       0.00000003 Ry

     iteration # 18     ecut=    60.00 Ry     beta= 0.50
     Davidson diagonalization with overlap
     ethr =  1.49E-11,  avg # of iterations =  2.0

     total cpu time spent up to now is    30810.2 secs

     total energy              =   -8165.85593506 Ry
     estimated scf accuracy    <          8.7E-09 Ry

     iteration # 19     ecut=    60.00 Ry     beta= 0.50
     Davidson diagonalization with overlap
     ethr =  4.96E-12,  avg # of iterations =  5.0

     total cpu time spent up to now is    30966.1 secs

     total energy              =   -8165.85593507 Ry
     estimated scf accuracy    <       0.00000002 Ry

     iteration # 20     ecut=    60.00 Ry     beta= 0.50
     Davidson diagonalization with overlap
     ethr =  4.96E-12,  avg # of iterations =  2.8

     total cpu time spent up to now is    31062.3 secs

     total energy              =   -8165.85593507 Ry
     estimated scf accuracy    <          4.3E-09 Ry

     iteration # 21     ecut=    60.00 Ry     beta= 0.50
     Davidson diagonalization with overlap
     ethr =  2.46E-12,  avg # of iterations =  4.0

     total cpu time spent up to now is    31189.0 secs

     End of self-consistent calculation

          k = 0.0000 0.0000 0.0000 ( 50101 PWs)   bands (ev):

   -17.3402 -17.3395 -17.3384 -17.3379 -13.1358 -13.1317 -13.1311 -13.1285
   -13.1209 -13.1137 -13.1107 -13.1106 -13.0769 -13.0767 -13.0766 -13.0762
   -13.0750 -13.0750 -13.0746 -13.0745 -13.0702 -13.0700 -13.0694 -13.0692
    -8.8271  -8.6258  -8.3783  -8.3440  -8.3129  -8.3077  -8.2881  -8.2768
    -8.2755  -8.0884  -8.0841  -8.0821  -5.0320  -4.4962  -4.2059  -4.2038
    -4.1959  -4.1860  -4.1849  -4.1843  -4.1832  -4.1734  -4.1699  -4.1516
    -4.1330  -4.1307  -3.9728  -3.5006  -0.0710  -0.0140   0.0032   0.0562
     0.1396   0.2601   1.0674   1.3538   1.3679   1.3838   1.3898   1.4475
     1.6660   1.8330   1.8836   1.9421   1.9726   1.9759   2.0276   2.0280
     2.0625   2.0634   2.0678   2.0825   2.0836   2.2593   2.3725   2.3737
     2.3880   2.3930   2.4074   2.4817   2.6562   2.6631   2.9352   3.3982

          k = 0.0000 0.0000-0.3483 ( 50118 PWs)   bands (ev):

   -17.3399 -17.3399 -17.3381 -17.3381 -13.1312 -13.1312 -13.1283 -13.1283
   -13.1213 -13.1213 -13.1106 -13.1106 -13.0768 -13.0768 -13.0764 -13.0764
   -13.0748 -13.0748 -13.0747 -13.0747 -13.0701 -13.0701 -13.0693 -13.0693
    -8.7500  -8.7500  -8.3464  -8.3464  -8.2987  -8.2987  -8.2872  -8.2872
    -8.1793  -8.1793  -8.0849  -8.0849  -4.7776  -4.7776  -4.2032  -4.2032
    -4.1982  -4.1982  -4.1793  -4.1793  -4.1551  -4.1551  -4.1504  -4.1504
    -4.1445  -4.1445  -3.7976  -3.7976   0.0488   0.0488   0.0513   0.0513
     0.7061   0.7061   0.9551   0.9551   1.2128   1.2128   1.4490   1.4490
     1.5299   1.5299   1.8611   1.8611   1.9628   1.9628   2.0365   2.0365
     2.0802   2.0802   2.1110   2.1110   2.2381   2.2381   2.2886   2.2886
     2.3547   2.3547   2.3901   2.3901   2.5729   2.5729   3.0221   3.0221

          k = 0.0000 0.3238 0.0000 ( 50121 PWs)   bands (ev):

   -17.3398 -17.3391 -17.3388 -17.3383 -13.1341 -13.1311 -13.1261 -13.1257
   -13.1194 -13.1157 -13.1153 -13.1153 -13.0768 -13.0766 -13.0766 -13.0763
   -13.0750 -13.0750 -13.0746 -13.0746 -13.0701 -13.0698 -13.0696 -13.0694
    -8.7577  -8.5734  -8.5517  -8.3845  -8.3297  -8.3174  -8.2398  -8.2279
    -8.1732  -8.1397  -8.1309  -8.0986  -4.8104  -4.3725  -4.3362  -4.2114
    -4.2014  -4.1855  -4.1809  -4.1696  -4.1613  -4.1582  -4.1563  -4.1520
    -4.1505  -4.0969  -4.0862  -3.7723  -0.0081   0.0858   0.2761   0.4621
     0.4679   0.5447   1.0366   1.1028   1.2440   1.2663   1.2944   1.3406
     1.4640   1.5712   1.6850   1.7267   1.8888   1.9392   1.9645   2.0173
     2.0337   2.0351   2.1309   2.1592   2.1636   2.2617   2.2653   2.2682
     2.3239   2.3474   2.3926   2.4732   2.5658   2.6557   2.7260   2.9461

          k = 0.0000 0.3238-0.3483 ( 50184 PWs)   bands (ev):

   -17.3394 -17.3394 -17.3385 -17.3385 -13.1267 -13.1267 -13.1265 -13.1265
   -13.1226 -13.1226 -13.1157 -13.1157 -13.0767 -13.0767 -13.0765 -13.0765
   -13.0748 -13.0748 -13.0748 -13.0748 -13.0699 -13.0699 -13.0695 -13.0695
    -8.6807  -8.6807  -8.5078  -8.5078  -8.2415  -8.2415  -8.2171  -8.2171
    -8.1803  -8.1803  -8.1348  -8.1348  -4.5764  -4.5764  -4.2185  -4.2185
    -4.1901  -4.1901  -4.1900  -4.1900  -4.1697  -4.1697  -4.1537  -4.1537
    -4.1340  -4.1340  -4.0194  -4.0194   0.3474   0.3474   0.4475   0.4475
     0.8000   0.8000   0.8347   0.8347   1.1245   1.1245   1.1929   1.1929
     1.5552   1.5552   1.6808   1.6808   1.8391   1.8391   1.8409   1.8409
     1.9401   1.9401   2.0296   2.0296   2.3017   2.3017   2.3103   2.3103
     2.3926   2.3926   2.4038   2.4038   2.6073   2.6073   2.6378   2.6378

          k = 0.3341 0.0000 0.0000 ( 50214 PWs)   bands (ev):

   -17.3398 -17.3393 -17.3386 -17.3382 -13.1342 -13.1311 -13.1261 -13.1257
   -13.1194 -13.1158 -13.1153 -13.1153 -13.0768 -13.0766 -13.0766 -13.0763
   -13.0750 -13.0750 -13.0746 -13.0746 -13.0701 -13.0698 -13.0697 -13.0694
    -8.7550  -8.5674  -8.5491  -8.3758  -8.3254  -8.3179  -8.2556  -8.2373
    -8.1704  -8.1439  -8.1339  -8.1007  -4.8061  -4.3489  -4.3205  -4.2021
    -4.1932  -4.1888  -4.1830  -4.1807  -4.1796  -4.1533  -4.1529  -4.1498
    -4.1428  -4.1033  -4.0950  -3.7824  -0.0051   0.1003   0.2753   0.4264
     0.4400   0.5990   0.9586   1.1487   1.2506   1.2607   1.3007   1.4275
     1.4494   1.5675   1.6950   1.7194   1.9245   1.9495   1.9837   1.9949
     2.0421   2.0594   2.1042   2.1283   2.1919   2.2041   2.2498   2.2872
     2.3295   2.3728   2.4236   2.4619   2.5418   2.5423   2.7118   2.9109

          k = 0.3341 0.0000-0.3483 ( 50200 PWs)   bands (ev):

   -17.3395 -17.3395 -17.3384 -17.3384 -13.1267 -13.1267 -13.1265 -13.1265
   -13.1226 -13.1226 -13.1157 -13.1157 -13.0767 -13.0767 -13.0765 -13.0765
   -13.0748 -13.0748 -13.0748 -13.0748 -13.0699 -13.0699 -13.0695 -13.0695
    -8.6786  -8.6786  -8.5009  -8.5009  -8.2481  -8.2481  -8.2164  -8.2164
    -8.1839  -8.1839  -8.1383  -8.1383  -4.5682  -4.5682  -4.2065  -4.2065
    -4.2016  -4.2016  -4.1775  -4.1775  -4.1527  -4.1527  -4.1472  -4.1472
    -4.1431  -4.1431  -4.0451  -4.0451   0.3441   0.3441   0.4576   0.4576
     0.7341   0.7341   0.8748   0.8748   1.0828   1.0828   1.2314   1.2314
     1.6085   1.6085   1.6727   1.6727   1.8154   1.8154   1.9097   1.9097
     2.0065   2.0065   2.0595   2.0595   2.2461   2.2461   2.3427   2.3427
     2.3644   2.3644   2.3901   2.3901   2.5110   2.5110   2.5750   2.5750

          k = 0.3341 0.3238 0.0000 ( 50152 PWs)   bands (ev):

   -17.3395 -17.3391 -17.3388 -17.3384 -13.1349 -13.1330 -13.1261 -13.1221
   -13.1217 -13.1171 -13.1153 -13.1127 -13.0768 -13.0767 -13.0765 -13.0764
   -13.0750 -13.0750 -13.0746 -13.0746 -13.0700 -13.0697 -13.0697 -13.0695
    -8.7000  -8.5937  -8.4793  -8.3332  -8.3311  -8.3235  -8.3114  -8.3031
    -8.2378  -8.1971  -8.0923  -8.0642  -4.6712  -4.4457  -4.2577  -4.1955
    -4.1910  -4.1822  -4.1749  -4.1747  -4.1670  -4.1640  -4.1558  -4.1511
    -4.1488  -4.1233  -4.0229  -3.8575   0.0111   0.0628   0.0866   0.2337
     0.4550   0.6220   0.9723   1.1655   1.1773   1.1775   1.2839   1.5769
     1.5886   1.6732   1.7716   1.8843   1.9139   1.9571   1.9689   1.9976
     2.0024   2.0922   2.1283   2.1332   2.1725   2.1793   2.2259   2.2402
     2.2418   2.3186   2.3334   2.4025   2.5745   2.6510   2.7623   2.9593

          k = 0.3341 0.3238-0.3483 ( 50168 PWs)   bands (ev):

   -17.3392 -17.3392 -17.3387 -17.3387 -13.1292 -13.1292 -13.1266 -13.1266
   -13.1198 -13.1198 -13.1159 -13.1159 -13.0766 -13.0766 -13.0765 -13.0765
   -13.0748 -13.0748 -13.0748 -13.0748 -13.0698 -13.0698 -13.0696 -13.0696
    -8.6207  -8.6207  -8.5146  -8.5146  -8.3127  -8.3127  -8.2486  -8.2486
    -8.1535  -8.1535  -8.1326  -8.1326  -4.4535  -4.4535  -4.2668  -4.2668
    -4.1897  -4.1897  -4.1750  -4.1750  -4.1595  -4.1595  -4.1451  -4.1451
    -4.1291  -4.1291  -4.0741  -4.0741   0.1534   0.1534   0.5172   0.5172
     0.7108   0.7108   0.8565   0.8565   1.0592   1.0592   1.2627   1.2627
     1.5745   1.5745   1.6863   1.6863   1.8817   1.8817   1.9420   1.9420
     2.0576   2.0576   2.1549   2.1549   2.2082   2.2082   2.2756   2.2756
     2.3280   2.3280   2.3905   2.3905   2.5205   2.5205   2.6407   2.6407

     highest occupied level (ev):     3.3982

!    total energy              =   -8165.85593507 Ry
     estimated scf accuracy    <          7.2E-10 Ry

     The total energy is the sum of the following terms:
     one-electron contribution =    -328.43745126 Ry
     hartree contribution      =     252.66842340 Ry
     xc contribution           =    -792.76904908 Ry
     ewald contribution        =    -647.69814915 Ry
     one-center paw contrib.   =   -6649.61970898 Ry

     convergence has been achieved in  21 iterations

     Forces acting on atoms (cartesian axes, Ry/au):

     atom    1 type  1   force =    -0.00035831    0.00040760    0.00000000
     atom    2 type  1   force =     0.00035831   -0.00040760    0.00000000
     atom    3 type  1   force =    -0.00035831   -0.00040760    0.00000000
     atom    4 type  1   force =     0.00035831    0.00040760   -0.00000000
     atom    5 type  2   force =    -0.00000000    0.00000000   -0.00000000
     atom    6 type  2   force =     0.00000000    0.00000000    0.00000000
     atom    7 type  2   force =     0.00000000    0.00000000    0.00000000
     atom    8 type  2   force =     0.00000000   -0.00000000    0.00000000
     atom    9 type  3   force =     0.00041895   -0.00085164    0.00000000
     atom   10 type  3   force =    -0.00041895    0.00085164    0.00000000
     atom   11 type  3   force =     0.00041895    0.00085164    0.00000000
     atom   12 type  3   force =    -0.00041895   -0.00085164   -0.00000000
     atom   13 type  3   force =     0.00184338    0.00143976   -0.00142773
     atom   14 type  3   force =    -0.00184338   -0.00143976   -0.00142773
     atom   15 type  3   force =     0.00184338   -0.00143976    0.00142773
     atom   16 type  3   force =    -0.00184338    0.00143976    0.00142773
     atom   17 type  3   force =    -0.00184338   -0.00143976    0.00142773
     atom   18 type  3   force =     0.00184338    0.00143976    0.00142773
     atom   19 type  3   force =    -0.00184338    0.00143976   -0.00142773
     atom   20 type  3   force =     0.00184338   -0.00143976   -0.00142773

     Total force =     0.008053     Total SCF correction =     0.000005


     Computing stress (Cartesian axis) and pressure

          total   stress  (Ry/bohr**3)                   (kbar)     P=        0.09
  -0.00001430   0.00000000   0.00000000           -2.10        0.00        0.00
   0.00000000   0.00000681   0.00000000            0.00        1.00        0.00
   0.00000000   0.00000000   0.00000929            0.00        0.00        1.37

     Energy error            =      5.4E-04 Ry
     Gradient error          =      1.8E-03 Ry/Bohr
     Cell gradient error     =      2.1E+00 kbar

     number of scf cycles    =  23
     number of bfgs steps    =  22

     enthalpy           old  =   -8165.8553910661 Ry
     enthalpy           new  =   -8165.8559350734 Ry

     CASE: enthalpy          _new < enthalpy          _old

     new trust radius        =       0.0887847596 bohr
     new conv_thr            =       0.0000000018 Ry

     new unit-cell volume =   6246.39189 a.u.^3 (   925.61978 Ang^3 )
     density =      5.17251 g/cm^3

CELL_PARAMETERS (angstrom)
   8.508558696   0.000000000   0.000000000
   0.000000000   8.842449627   0.000000000
   0.000000000   0.000000000  12.302801953

ATOMIC_POSITIONS (crystal)
Cs               0.4727120982        0.4225197756        0.2500000000
Cs               0.5272879018        0.5774802244        0.7500000000
Cs              -0.0272879018        0.0774802244        0.7500000000
Cs               1.0272879018        0.9225197756        0.2500000000
Pb               0.5000000000        0.0000000000       -0.0000000000
Pb               0.5000000000       -0.0000000000        0.5000000000
Pb               0.0000000000        0.5000000000       -0.0000000000
Pb              -0.0000000000        0.5000000000        0.5000000000
I                0.5850554265        0.0090454029        0.2500000000
I                0.4149445735        0.9909545971        0.7500000000
I                0.0850554265        0.4909545971        0.7500000000
I                0.9149445735        0.5090454029        0.2500000000
I                0.6884173437        0.3056116965        0.9649596786
I                0.3115826563        0.6943883035        0.4649596786
I                0.1884173437        0.1943883035        0.0350403214
I                0.8115826563        0.8056116965        0.5350403214
I                0.3115826563        0.6943883035        0.0350403214
I                0.6884173437        0.3056116965        0.5350403214
I                0.8115826563        0.8056116965        0.9649596786
I                0.1884173437        0.1943883035        0.4649596786



     Writing config-only to output data dir ./tmp/cspbi3_gamma_s1.save/ :
     XML data file
     NEW-OLD atomic charge density approx. for the potential
     New effective cutoffs (rho, wfc):  493.05   61.64

     total cpu time spent up to now is    31323.2 secs

     Self-consistent Calculation

     iteration #  1     ecut=    60.00 Ry     beta= 0.50
     Davidson diagonalization with overlap
     ethr =  1.00E-06,  avg # of iterations =  7.0

     total cpu time spent up to now is    31542.2 secs

     total energy              =   -8165.85604637 Ry
     estimated scf accuracy    <       0.00049591 Ry

     iteration #  2     ecut=    60.00 Ry     beta= 0.50
     Davidson diagonalization with overlap
     ethr =  2.82E-07,  avg # of iterations =  4.2

     total cpu time spent up to now is    31678.3 secs

     total energy              =   -8165.85638501 Ry
     estimated scf accuracy    <       0.00006994 Ry

     iteration #  3     ecut=    60.00 Ry     beta= 0.50
     Davidson diagonalization with overlap
     ethr =  3.97E-08,  avg # of iterations =  2.2

     total cpu time spent up to now is    31769.1 secs

     total energy              =   -8165.85644231 Ry
     estimated scf accuracy    <       0.00002720 Ry

     iteration #  4     ecut=    60.00 Ry     beta= 0.50
     Davidson diagonalization with overlap
     ethr =  1.55E-08,  avg # of iterations =  5.0

     total cpu time spent up to now is    31904.2 secs

     total energy              =   -8165.85645946 Ry
     estimated scf accuracy    <       0.00002477 Ry

     iteration #  5     ecut=    60.00 Ry     beta= 0.50
     Davidson diagonalization with overlap
     ethr =  1.41E-08,  avg # of iterations =  1.0

     total cpu time spent up to now is    31984.5 secs

     total energy              =   -8165.85646314 Ry
     estimated scf accuracy    <       0.00002809 Ry

     iteration #  6     ecut=    60.00 Ry     beta= 0.50
     Davidson diagonalization with overlap
     ethr =  1.41E-08,  avg # of iterations =  3.0

     total cpu time spent up to now is    32084.0 secs

     total energy              =   -8165.85646491 Ry
     estimated scf accuracy    <       0.00000098 Ry

     iteration #  7     ecut=    60.00 Ry     beta= 0.50
     Davidson diagonalization with overlap
     ethr =  5.55E-10,  avg # of iterations =  4.0

     total cpu time spent up to now is    32207.5 secs

     total energy              =   -8165.85646504 Ry
     estimated scf accuracy    <       0.00000095 Ry

     iteration #  8     ecut=    60.00 Ry     beta= 0.50
     Davidson diagonalization with overlap
     ethr =  5.42E-10,  avg # of iterations =  2.0

     total cpu time spent up to now is    32302.4 secs

     total energy              =   -8165.85646510 Ry
     estimated scf accuracy    <       0.00000008 Ry

     iteration #  9     ecut=    60.00 Ry     beta= 0.50
     Davidson diagonalization with overlap
     ethr =  4.36E-11,  avg # of iterations =  5.0

     total cpu time spent up to now is    32448.6 secs

     total energy              =   -8165.85646514 Ry
     estimated scf accuracy    <       0.00000002 Ry

     iteration # 10     ecut=    60.00 Ry     beta= 0.50
     Davidson diagonalization with overlap
     ethr =  1.40E-11,  avg # of iterations =  2.0

     total cpu time spent up to now is    32544.2 secs

     End of self-consistent calculation

          k = 0.0000 0.0000 0.0000 ( 50101 PWs)   bands (ev):

   -17.2878 -17.2870 -17.2858 -17.2853 -13.0909 -13.0879 -13.0875 -13.0836
   -13.0761 -13.0687 -13.0666 -13.0664 -13.0323 -13.0321 -13.0320 -13.0318
   -13.0300 -13.0299 -13.0296 -13.0295 -13.0251 -13.0247 -13.0242 -13.0239
    -8.7957  -8.5985  -8.3366  -8.3055  -8.2814  -8.2693  -8.2595  -8.2407
    -8.2397  -8.0544  -8.0469  -8.0464  -4.9958  -4.4661  -4.1561  -4.1559
    -4.1466  -4.1388  -4.1364  -4.1361  -4.1347  -4.1244  -4.1194  -4.1001
    -4.0826  -4.0793  -3.9223  -3.4560  -0.0360   0.0206   0.0250   0.0924
     0.1691   0.3058   1.0932   1.3856   1.3970   1.4161   1.4321   1.4785
     1.7070   1.8666   1.9139   1.9797   2.0038   2.0180   2.0561   2.0622
     2.1042   2.1076   2.1077   2.1088   2.1112   2.3078   2.4103   2.4144
     2.4278   2.4344   2.4467   2.5157   2.6975   2.7009   2.9860   3.4438

          k = 0.0000 0.0000-0.3486 ( 50118 PWs)   bands (ev):

   -17.2874 -17.2874 -17.2855 -17.2855 -13.0876 -13.0876 -13.0835 -13.0835
   -13.0763 -13.0763 -13.0665 -13.0665 -13.0322 -13.0322 -13.0319 -13.0319
   -13.0298 -13.0298 -13.0297 -13.0297 -13.0249 -13.0249 -13.0241 -13.0241
    -8.7195  -8.7195  -8.3047  -8.3047  -8.2704  -8.2704  -8.2526  -8.2526
    -8.1410  -8.1410  -8.0502  -8.0502  -4.7437  -4.7437  -4.1552  -4.1552
    -4.1503  -4.1503  -4.1311  -4.1311  -4.1044  -4.1044  -4.1001  -4.1001
    -4.0932  -4.0932  -3.7504  -3.7504   0.0724   0.0724   0.0831   0.0831
     0.7415   0.7415   0.9933   0.9933   1.2437   1.2437   1.4826   1.4826
     1.5743   1.5743   1.8901   1.8901   1.9975   1.9975   2.0677   2.0677
     2.1213   2.1213   2.1475   2.1475   2.2776   2.2776   2.3326   2.3326
     2.3880   2.3880   2.4307   2.4307   2.6163   2.6163   3.0724   3.0724

          k = 0.0000 0.3233 0.0000 ( 50121 PWs)   bands (ev):

   -17.2873 -17.2866 -17.2863 -17.2857 -13.0892 -13.0862 -13.0824 -13.0818
   -13.0747 -13.0718 -13.0712 -13.0704 -13.0323 -13.0322 -13.0319 -13.0318
   -13.0300 -13.0299 -13.0296 -13.0296 -13.0249 -13.0246 -13.0244 -13.0242
    -8.7258  -8.5397  -8.5242  -8.3564  -8.2892  -8.2758  -8.2045  -8.1930
    -8.1366  -8.1060  -8.0958  -8.0613  -4.7717  -4.3281  -4.3015  -4.1642
    -4.1526  -4.1369  -4.1334  -4.1217  -4.1110  -4.1075  -4.1066  -4.1021
    -4.1003  -4.0470  -4.0371  -3.7314   0.0343   0.1287   0.3099   0.4957
     0.4983   0.5694   1.0714   1.1338   1.2760   1.2964   1.3270   1.3665
     1.5062   1.6057   1.7178   1.7706   1.9168   1.9730   1.9975   2.0519
     2.0627   2.0701   2.1699   2.1951   2.1953   2.3064   2.3087   2.3111
     2.3626   2.3886   2.4297   2.5138   2.6180   2.7013   2.7691   2.9937

          k = 0.0000 0.3233-0.3486 ( 50184 PWs)   bands (ev):

   -17.2870 -17.2870 -17.2860 -17.2860 -13.0827 -13.0827 -13.0818 -13.0818
   -13.0778 -13.0778 -13.0717 -13.0717 -13.0321 -13.0321 -13.0320 -13.0320
   -13.0298 -13.0298 -13.0298 -13.0298 -13.0247 -13.0247 -13.0243 -13.0243
    -8.6496  -8.6496  -8.4746  -8.4746  -8.2065  -8.2065  -8.1805  -8.1805
    -8.1426  -8.1426  -8.1002  -8.1002  -4.5400  -4.5400  -4.1722  -4.1722
    -4.1424  -4.1424  -4.1416  -4.1416  -4.1206  -4.1206  -4.1038  -4.1038
    -4.0832  -4.0832  -3.9730  -3.9730   0.3808   0.3808   0.4743   0.4743
     0.8349   0.8349   0.8722   0.8722   1.1590   1.1590   1.2244   1.2244
     1.5868   1.5868   1.7193   1.7193   1.8765   1.8765   1.8781   1.8781
     1.9740   1.9740   2.0597   2.0597   2.3428   2.3428   2.3466   2.3466
     2.4362   2.4362   2.4433   2.4433   2.6546   2.6546   2.6914   2.6914

          k = 0.3360 0.0000 0.0000 ( 50214 PWs)   bands (ev):

   -17.2874 -17.2868 -17.2860 -17.2856 -13.0892 -13.0862 -13.0824 -13.0818
   -13.0748 -13.0718 -13.0712 -13.0704 -13.0323 -13.0322 -13.0319 -13.0318
   -13.0300 -13.0299 -13.0296 -13.0296 -13.0249 -13.0246 -13.0244 -13.0242
    -8.7224  -8.5315  -8.5202  -8.3433  -8.2844  -8.2767  -8.2260  -8.2072
    -8.1335  -8.1101  -8.1005  -8.0626  -4.7673  -4.3045  -4.2861  -4.1543
    -4.1455  -4.1387  -4.1337  -4.1320  -4.1289  -4.1035  -4.1022  -4.0988
    -4.0916  -4.0549  -4.0436  -3.7416   0.0372   0.1448   0.2992   0.4516
     0.4782   0.6388   0.9864   1.1816   1.2803   1.2892   1.3355   1.4681
     1.4881   1.6050   1.7353   1.7550   1.9573   1.9829   2.0212   2.0275
     2.0807   2.0950   2.1418   2.1696   2.2316   2.2319   2.2891   2.3299
     2.3641   2.4101   2.4573   2.4977   2.5812   2.5832   2.7484   2.9472

          k = 0.3360 0.0000-0.3486 ( 50200 PWs)   bands (ev):

   -17.2871 -17.2871 -17.2859 -17.2859 -13.0827 -13.0827 -13.0818 -13.0818
   -13.0777 -13.0777 -13.0717 -13.0717 -13.0321 -13.0321 -13.0320 -13.0320
   -13.0298 -13.0298 -13.0298 -13.0298 -13.0247 -13.0247 -13.0243 -13.0243
    -8.6467  -8.6467  -8.4651  -8.4651  -8.2184  -8.2184  -8.1783  -8.1783
    -8.1457  -8.1457  -8.1050  -8.1050  -4.5317  -4.5317  -4.1598  -4.1598
    -4.1535  -4.1535  -4.1282  -4.1282  -4.1029  -4.1029  -4.0958  -4.0958
    -4.0927  -4.0927  -3.9989  -3.9989   0.3680   0.3680   0.4958   0.4958
     0.7677   0.7677   0.9128   0.9128   1.1127   1.1127   1.2677   1.2677
     1.6489   1.6489   1.7077   1.7077   1.8542   1.8542   1.9453   1.9453
     2.0437   2.0437   2.1005   2.1005   2.2874   2.2874   2.3783   2.3783
     2.3995   2.3995   2.4269   2.4269   2.5469   2.5469   2.6147   2.6147

          k = 0.3360 0.3233 0.0000 ( 50152 PWs)   bands (ev):

   -17.2871 -17.2866 -17.2863 -17.2859 -13.0902 -13.0882 -13.0821 -13.0780
   -13.0777 -13.0730 -13.0706 -13.0680 -13.0322 -13.0322 -13.0319 -13.0318
   -13.0300 -13.0299 -13.0296 -13.0296 -13.0247 -13.0245 -13.0245 -13.0243
    -8.6667  -8.5583  -8.4502  -8.3003  -8.2970  -8.2830  -8.2798  -8.2668
    -8.2049  -8.1639  -8.0549  -8.0268  -4.6306  -4.4023  -4.2167  -4.1465
    -4.1422  -4.1335  -4.1265  -4.1255  -4.1176  -4.1149  -4.1051  -4.1002
    -4.0989  -4.0729  -3.9782  -3.8171   0.0535   0.1065   0.1162   0.2621
     0.4865   0.6512   1.0040   1.2006   1.2101   1.2115   1.3149   1.6114
     1.6192   1.7063   1.8042   1.9177   1.9498   1.9937   2.0068   2.0301
     2.0400   2.1285   2.1675   2.1706   2.2113   2.2204   2.2641   2.2812
     2.2818   2.3565   2.3768   2.4426   2.6144   2.6943   2.8011   2.9999

          k = 0.3360 0.3233-0.3486 ( 50168 PWs)   bands (ev):

   -17.2868 -17.2868 -17.2862 -17.2862 -13.0849 -13.0849 -13.0820 -13.0820
   -13.0755 -13.0755 -13.0716 -13.0716 -13.0321 -13.0321 -13.0320 -13.0320
   -13.0298 -13.0298 -13.0298 -13.0298 -13.0246 -13.0246 -13.0244 -13.0244
    -8.5879  -8.5879  -8.4791  -8.4791  -8.2818  -8.2818  -8.2147  -8.2147
    -8.1163  -8.1163  -8.0960  -8.0960  -4.4147  -4.4147  -4.2225  -4.2225
    -4.1410  -4.1410  -4.1261  -4.1261  -4.1106  -4.1106  -4.0948  -4.0948
    -4.0788  -4.0788  -4.0263  -4.0263   0.1819   0.1819   0.5484   0.5484
     0.7452   0.7452   0.8928   0.8928   1.0916   1.0916   1.2965   1.2965
     1.6111   1.6111   1.7213   1.7213   1.9197   1.9197   1.9765   1.9765
     2.0932   2.0932   2.1935   2.1935   2.2489   2.2489   2.3145   2.3145
     2.3677   2.3677   2.4311   2.4311   2.5618   2.5618   2.6852   2.6852

     highest occupied level (ev):     3.4438

!    total energy              =   -8165.85646514 Ry
     estimated scf accuracy    <          1.2E-09 Ry

     The total energy is the sum of the following terms:
     one-electron contribution =    -326.32320847 Ry
     hartree contribution      =     251.89073715 Ry
     xc contribution           =    -792.79194481 Ry
     ewald contribution        =    -649.01158492 Ry
     one-center paw contrib.   =   -6649.62046409 Ry

     convergence has been achieved in  10 iterations

     Forces acting on atoms (cartesian axes, Ry/au):

     atom    1 type  1   force =    -0.00044275    0.00030150    0.00000000
     atom    2 type  1   force =     0.00044275   -0.00030150    0.00000000
     atom    3 type  1   force =    -0.00044275   -0.00030150   -0.00000000
     atom    4 type  1   force =     0.00044275    0.00030150   -0.00000000
     atom    5 type  2   force =     0.00000000    0.00000000   -0.00000000
     atom    6 type  2   force =     0.00000000    0.00000000    0.00000000
     atom    7 type  2   force =     0.00000000   -0.00000000    0.00000000
     atom    8 type  2   force =     0.00000000    0.00000000   -0.00000000
     atom    9 type  3   force =    -0.00009681   -0.00069856   -0.00000000
     atom   10 type  3   force =     0.00009681    0.00069856    0.00000000
     atom   11 type  3   force =    -0.00009681    0.00069856    0.00000000
     atom   12 type  3   force =     0.00009681   -0.00069856   -0.00000000
     atom   13 type  3   force =     0.00139775    0.00126829   -0.00154399
     atom   14 type  3   force =    -0.00139775   -0.00126829   -0.00154399
     atom   15 type  3   force =     0.00139775   -0.00126829    0.00154399
     atom   16 type  3   force =    -0.00139775    0.00126829    0.00154399
     atom   17 type  3   force =    -0.00139775   -0.00126829    0.00154399
     atom   18 type  3   force =     0.00139775    0.00126829    0.00154399
     atom   19 type  3   force =    -0.00139775    0.00126829   -0.00154399
     atom   20 type  3   force =     0.00139775   -0.00126829   -0.00154399

     Total force =     0.007121     Total SCF correction =     0.000015


     Computing stress (Cartesian axis) and pressure

          total   stress  (Ry/bohr**3)                   (kbar)     P=        0.72
  -0.00000633   0.00000000   0.00000000           -0.93        0.00        0.00
   0.00000000   0.00001048   0.00000000            0.00        1.54        0.00
   0.00000000   0.00000000   0.00001050            0.00        0.00        1.54

     Energy error            =      5.3E-04 Ry
     Gradient error          =      1.5E-03 Ry/Bohr
     Cell gradient error     =      1.5E+00 kbar

     number of scf cycles    =  24
     number of bfgs steps    =  23

     enthalpy           old  =   -8165.8559350734 Ry
     enthalpy           new  =   -8165.8564651426 Ry

     CASE: enthalpy          _new < enthalpy          _old

     new trust radius        =       0.1304015585 bohr
     new conv_thr            =       0.0000000015 Ry

     new unit-cell volume =   6213.60064 a.u.^3 (   920.76062 Ang^3 )
     density =      5.19981 g/cm^3

CELL_PARAMETERS (angstrom)
   8.438365637   0.000000000   0.000000000
   0.000000000   8.877394875   0.000000000
   0.000000000   0.000000000  12.291442624

ATOMIC_POSITIONS (crystal)
Cs               0.4699241105        0.4203290345        0.2500000000
Cs               0.5300758895        0.5796709655        0.7500000000
Cs              -0.0300758895        0.0796709655        0.7500000000
Cs               1.0300758895        0.9203290345        0.2500000000
Pb               0.5000000000        0.0000000000       -0.0000000000
Pb               0.5000000000       -0.0000000000        0.5000000000
Pb               0.0000000000        0.5000000000       -0.0000000000
Pb              -0.0000000000        0.5000000000        0.5000000000
I                0.5886999098        0.0082453680        0.2500000000
I                0.4113000902        0.9917546320        0.7500000000
I                0.0886999098        0.4917546320        0.7500000000
I                0.9113000902        0.5082453680        0.2500000000
I                0.6879188576        0.3062078917        0.9639376273
I                0.3120811424        0.6937921083        0.4639376273
I                0.1879188576        0.1937921083        0.0360623727
I                0.8120811424        0.8062078917        0.5360623727
I                0.3120811424        0.6937921083        0.0360623727
I                0.6879188576        0.3062078917        0.5360623727
I                0.8120811424        0.8062078917        0.9639376273
I                0.1879188576        0.1937921083        0.4639376273



     Writing config-only to output data dir ./tmp/cspbi3_gamma_s1.save/ :
     XML data file
     NEW-OLD atomic charge density approx. for the potential
     New effective cutoffs (rho, wfc):  495.73   61.94

     total cpu time spent up to now is    32677.2 secs

     Self-consistent Calculation

     iteration #  1     ecut=    60.00 Ry     beta= 0.50
     Davidson diagonalization with overlap
     ethr =  1.00E-06,  avg # of iterations =  7.1

     total cpu time spent up to now is    32922.8 secs

     total energy              =   -8165.85639654 Ry
     estimated scf accuracy    <       0.00073071 Ry

     iteration #  2     ecut=    60.00 Ry     beta= 0.50
     Davidson diagonalization with overlap
     ethr =  4.15E-07,  avg # of iterations =  4.1

     total cpu time spent up to now is    33051.9 secs

     total energy              =   -8165.85686747 Ry
     estimated scf accuracy    <       0.00012881 Ry

     iteration #  3     ecut=    60.00 Ry     beta= 0.50
     Davidson diagonalization with overlap
     ethr =  7.32E-08,  avg # of iterations =  1.6

     total cpu time spent up to now is    33138.4 secs

     total energy              =   -8165.85694856 Ry
     estimated scf accuracy    <       0.00004644 Ry

     iteration #  4     ecut=    60.00 Ry     beta= 0.50
     Davidson diagonalization with overlap
     ethr =  2.64E-08,  avg # of iterations =  5.0

     total cpu time spent up to now is    33270.3 secs

     total energy              =   -8165.85697054 Ry
     estimated scf accuracy    <       0.00002157 Ry

     iteration #  5     ecut=    60.00 Ry     beta= 0.50
     Davidson diagonalization with overlap
     ethr =  1.23E-08,  avg # of iterations =  2.2

     total cpu time spent up to now is    33356.1 secs

     total energy              =   -8165.85697553 Ry
     estimated scf accuracy    <       0.00001604 Ry

     iteration #  6     ecut=    60.00 Ry     beta= 0.50
     Davidson diagonalization with overlap
     ethr =  9.11E-09,  avg # of iterations =  3.9

     total cpu time spent up to now is    33452.8 secs

     total energy              =   -8165.85697703 Ry
     estimated scf accuracy    <       0.00000102 Ry

     iteration #  7     ecut=    60.00 Ry     beta= 0.50
     Davidson diagonalization with overlap
     ethr =  5.82E-10,  avg # of iterations =  4.4

     total cpu time spent up to now is    33567.1 secs

     total energy              =   -8165.85697727 Ry
     estimated scf accuracy    <       0.00000027 Ry

     iteration #  8     ecut=    60.00 Ry     beta= 0.50
     Davidson diagonalization with overlap
     ethr =  1.52E-10,  avg # of iterations =  3.4

     total cpu time spent up to now is    33693.4 secs

     total energy              =   -8165.85697738 Ry
     estimated scf accuracy    <       0.00000002 Ry

     iteration #  9     ecut=    60.00 Ry     beta= 0.50
     Davidson diagonalization with overlap
     ethr =  1.02E-11,  avg # of iterations =  4.1

     total cpu time spent up to now is    33837.8 secs

     End of self-consistent calculation

          k = 0.0000 0.0000 0.0000 ( 50101 PWs)   bands (ev):

   -17.2299 -17.2292 -17.2278 -17.2272 -13.0464 -13.0446 -13.0443 -13.0391
   -13.0317 -13.0242 -13.0230 -13.0229 -12.9891 -12.9890 -12.9886 -12.9886
   -12.9856 -12.9853 -12.9853 -12.9850 -12.9804 -12.9801 -12.9796 -12.9793
    -8.7598  -8.5678  -8.2914  -8.2631  -8.2531  -8.2300  -8.2238  -8.2014
    -8.1985  -8.0187  -8.0098  -8.0069  -4.9548  -4.4358  -4.1043  -4.1004
    -4.0924  -4.0876  -4.0861  -4.0822  -4.0817  -4.0712  -4.0636  -4.0431
    -4.0273  -4.0222  -3.8696  -3.4131   0.0003   0.0489   0.0650   0.1388
     0.2070   0.3576   1.1209   1.4217   1.4284   1.4491   1.4814   1.5094
     1.7533   1.9041   1.9435   2.0146   2.0344   2.0640   2.0820   2.0944
     2.1327   2.1393   2.1478   2.1496   2.1577   2.3637   2.4474   2.4596
     2.4634   2.4855   2.4874   2.5501   2.7398   2.7401   3.0339   3.4842

          k = 0.0000 0.0000-0.3489 ( 50118 PWs)   bands (ev):

   -17.2296 -17.2296 -17.2275 -17.2275 -13.0444 -13.0444 -13.0391 -13.0391
   -13.0318 -13.0318 -13.0230 -13.0230 -12.9888 -12.9888 -12.9888 -12.9888
   -12.9854 -12.9854 -12.9851 -12.9851 -12.9803 -12.9803 -12.9795 -12.9795
    -8.6848  -8.6848  -8.2598  -8.2598  -8.2411  -8.2411  -8.2134  -8.2134
    -8.1003  -8.1003  -8.0138  -8.0138  -4.7067  -4.7067  -4.1031  -4.1031
    -4.0979  -4.0979  -4.0785  -4.0785  -4.0484  -4.0484  -4.0449  -4.0449
    -4.0367  -4.0367  -3.7034  -3.7034   0.0954   0.0954   0.1276   0.1276
     0.7813   0.7813   1.0338   1.0338   1.2782   1.2782   1.5171   1.5171
     1.6270   1.6270   1.9177   1.9177   2.0315   2.0315   2.0967   2.0967
     2.1664   2.1664   2.1840   2.1840   2.3222   2.3222   2.3797   2.3797
     2.4201   2.4201   2.4744   2.4744   2.6638   2.6638   3.1195   3.1195

          k = 0.0000 0.3220 0.0000 ( 50121 PWs)   bands (ev):

   -17.2294 -17.2287 -17.2283 -17.2277 -13.0447 -13.0417 -13.0391 -13.0384
   -13.0304 -13.0283 -13.0277 -13.0260 -12.9891 -12.9890 -12.9886 -12.9886
   -12.9855 -12.9854 -12.9852 -12.9851 -12.9802 -12.9799 -12.9798 -12.9795
    -8.6897  -8.5029  -8.4938  -8.3267  -8.2452  -8.2306  -8.1652  -8.1541
    -8.0978  -8.0706  -8.0579  -8.0224  -4.7292  -4.2806  -4.2665  -4.1131
    -4.0985  -4.0844  -4.0822  -4.0705  -4.0553  -4.0529  -4.0518  -4.0474
    -4.0455  -3.9929  -3.9825  -3.6905   0.0827   0.1789   0.3516   0.5227
     0.5421   0.5952   1.1126   1.1668   1.3128   1.3271   1.3633   1.3919
     1.5549   1.6396   1.7494   1.8197   1.9435   2.0103   2.0322   2.0860
     2.0865   2.1083   2.2113   2.2258   2.2346   2.3524   2.3545   2.3596
     2.4008   2.4317   2.4692   2.5550   2.6795   2.7504   2.8165   3.0468

          k = 0.0000 0.3220-0.3489 ( 50184 PWs)   bands (ev):

   -17.2290 -17.2290 -17.2280 -17.2280 -13.0392 -13.0392 -13.0373 -13.0373
   -13.0334 -13.0334 -13.0283 -13.0283 -12.9888 -12.9888 -12.9888 -12.9888
   -12.9854 -12.9854 -12.9852 -12.9852 -12.9801 -12.9801 -12.9797 -12.9797
    -8.6148  -8.6148  -8.4388  -8.4388  -8.1674  -8.1674  -8.1412  -8.1412
    -8.1027  -8.1027  -8.0635  -8.0635  -4.5009  -4.5009  -4.1226  -4.1226
    -4.0909  -4.0909  -4.0884  -4.0884  -4.0667  -4.0667  -4.0492  -4.0492
    -4.0275  -4.0275  -3.9246  -3.9246   0.4224   0.4224   0.5013   0.5013
     0.8731   0.8731   0.9133   0.9133   1.2000   1.2000   1.2575   1.2575
     1.6183   1.6183   1.7626   1.7626   1.9130   1.9130   1.9182   1.9182
     2.0100   2.0100   2.0857   2.0857   2.3852   2.3852   2.3868   2.3868
     2.4820   2.4820   2.4843   2.4843   2.7074   2.7074   2.7531   2.7531

          k = 0.3388 0.0000 0.0000 ( 50214 PWs)   bands (ev):

   -17.2295 -17.2289 -17.2280 -17.2276 -13.0447 -13.0417 -13.0391 -13.0384
   -13.0304 -13.0283 -13.0277 -13.0260 -12.9891 -12.9890 -12.9886 -12.9886
   -12.9855 -12.9854 -12.9852 -12.9851 -12.9803 -12.9799 -12.9798 -12.9795
    -8.6853  -8.4913  -8.4876  -8.3064  -8.2401  -8.2326  -8.1954  -8.1759
    -8.0972  -8.0710  -8.0655  -8.0221  -4.7247  -4.2586  -4.2520  -4.1023
    -4.0935  -4.0830  -4.0796  -4.0791  -4.0723  -4.0485  -4.0466  -4.0426
    -4.0354  -4.0007  -3.9870  -3.7006   0.0850   0.1960   0.3244   0.4799
     0.5252   0.6879   1.0110   1.2161   1.3080   1.3177   1.3728   1.5144
     1.5301   1.6499   1.7793   1.7954   1.9905   2.0194   2.0617   2.0653
     2.1255   2.1294   2.1868   2.2137   2.2566   2.2751   2.3301   2.3767
     2.3987   2.4475   2.4875   2.5333   2.6194   2.6251   2.7829   2.9774

          k = 0.3388 0.0000-0.3489 ( 50200 PWs)   bands (ev):

   -17.2292 -17.2292 -17.2278 -17.2278 -13.0393 -13.0393 -13.0373 -13.0373
   -13.0334 -13.0334 -13.0283 -13.0283 -12.9889 -12.9889 -12.9888 -12.9888
   -12.9854 -12.9854 -12.9852 -12.9852 -12.9801 -12.9801 -12.9797 -12.9797
    -8.6105  -8.6105  -8.4252  -8.4252  -8.1881  -8.1881  -8.1375  -8.1375
    -8.1047  -8.1047  -8.0693  -8.0693  -4.4929  -4.4929  -4.1104  -4.1104
    -4.1009  -4.1009  -4.0738  -4.0738  -4.0481  -4.0481  -4.0393  -4.0393
    -4.0373  -4.0373  -3.9492  -3.9492   0.3933   0.3933   0.5432   0.5432
     0.8044   0.8044   0.9538   0.9538   1.1402   1.1402   1.3074   1.3074
     1.6969   1.6969   1.7453   1.7453   1.8966   1.8966   1.9836   1.9836
     2.0837   2.0837   2.1461   2.1461   2.3342   2.3342   2.4120   2.4120
     2.4351   2.4351   2.4649   2.4649   2.5811   2.5811   2.6515   2.6515

          k = 0.3388 0.3220 0.0000 ( 50152 PWs)   bands (ev):

   -17.2291 -17.2287 -17.2283 -17.2279 -13.0459 -13.0437 -13.0386 -13.0343
   -13.0341 -13.0294 -13.0264 -13.0239 -12.9890 -12.9890 -12.9886 -12.9886
   -12.9855 -12.9854 -12.9852 -12.9851 -12.9801 -12.9799 -12.9798 -12.9796
    -8.6293  -8.5190  -8.4180  -8.2674  -8.2603  -8.2447  -8.2396  -8.2251
    -8.1696  -8.1284  -8.0154  -7.9875  -4.5868  -4.3563  -4.1742  -4.0924
    -4.0889  -4.0803  -4.0743  -4.0712  -4.0634  -4.0616  -4.0495  -4.0446
    -4.0442  -4.0176  -3.9297  -3.7765   0.1017   0.1513   0.1572   0.2963
     0.5215   0.6845   1.0377   1.2394   1.2451   1.2491   1.3472   1.6476
     1.6510   1.7392   1.8400   1.9522   1.9874   2.0341   2.0450   2.0638
     2.0834   2.1668   2.2084   2.2108   2.2544   2.2669   2.3042   2.3236
     2.3255   2.3957   2.4235   2.4815   2.6538   2.7392   2.8389   3.0373

          k = 0.3388 0.3220-0.3489 ( 50168 PWs)   bands (ev):

   -17.2288 -17.2288 -17.2282 -17.2282 -13.0410 -13.0410 -13.0379 -13.0379
   -13.0316 -13.0316 -13.0278 -13.0278 -12.9888 -12.9888 -12.9888 -12.9888
   -12.9853 -12.9853 -12.9853 -12.9853 -12.9800 -12.9800 -12.9798 -12.9798
    -8.5513  -8.5513  -8.4400  -8.4400  -8.2483  -8.2483  -8.1785  -8.1785
    -8.0765  -8.0765  -8.0569  -8.0569  -4.3734  -4.3734  -4.1753  -4.1753
    -4.0876  -4.0876  -4.0726  -4.0726  -4.0574  -4.0574  -4.0398  -4.0398
    -4.0234  -4.0234  -3.9752  -3.9752   0.2157   0.2157   0.5834   0.5834
     0.7834   0.7834   0.9325   0.9325   1.1260   1.1260   1.3335   1.3335
     1.6514   1.6514   1.7589   1.7589   1.9604   1.9604   2.0133   2.0133
     2.1288   2.1288   2.2352   2.2352   2.2926   2.2926   2.3574   2.3574
     2.4086   2.4086   2.4726   2.4726   2.6041   2.6041   2.7296   2.7296

     highest occupied level (ev):     3.4842

!    total energy              =   -8165.85697740 Ry
     estimated scf accuracy    <          1.3E-09 Ry

     The total energy is the sum of the following terms:
     one-electron contribution =    -323.69255047 Ry
     hartree contribution      =     250.86757753 Ry
     xc contribution           =    -792.81171484 Ry
     ewald contribution        =    -650.59921347 Ry
     one-center paw contrib.   =   -6649.62107615 Ry

     convergence has been achieved in   9 iterations

     Forces acting on atoms (cartesian axes, Ry/au):

     atom    1 type  1   force =    -0.00058685   -0.00027833    0.00000000
     atom    2 type  1   force =     0.00058685    0.00027833    0.00000000
     atom    3 type  1   force =    -0.00058685    0.00027833    0.00000000
     atom    4 type  1   force =     0.00058685   -0.00027833    0.00000000
     atom    5 type  2   force =     0.00000000    0.00000000   -0.00000000
     atom    6 type  2   force =    -0.00000000    0.00000000    0.00000000
     atom    7 type  2   force =     0.00000000    0.00000000   -0.00000000
     atom    8 type  2   force =     0.00000000   -0.00000000    0.00000000
     atom    9 type  3   force =    -0.00105503   -0.00014802   -0.00000000
     atom   10 type  3   force =     0.00105503    0.00014802    0.00000000
     atom   11 type  3   force =    -0.00105503    0.00014802    0.00000000
     atom   12 type  3   force =     0.00105503   -0.00014802   -0.00000000
     atom   13 type  3   force =     0.00022391    0.00024656   -0.00153909
     atom   14 type  3   force =    -0.00022391   -0.00024656   -0.00153909
     atom   15 type  3   force =     0.00022391   -0.00024656    0.00153909
     atom   16 type  3   force =    -0.00022391    0.00024656    0.00153909
     atom   17 type  3   force =    -0.00022391   -0.00024656    0.00153909
     atom   18 type  3   force =     0.00022391    0.00024656    0.00153909
     atom   19 type  3   force =    -0.00022391    0.00024656   -0.00153909
     atom   20 type  3   force =     0.00022391   -0.00024656   -0.00153909

     Total force =     0.005105     Total SCF correction =     0.000021


     Computing stress (Cartesian axis) and pressure

          total   stress  (Ry/bohr**3)                   (kbar)     P=        1.25
   0.00000475   0.00000000   0.00000000            0.70        0.00        0.00
   0.00000000   0.00000961   0.00000000            0.00        1.41        0.00
   0.00000000   0.00000000   0.00001106            0.00        0.00        1.63

     Energy error            =      5.1E-04 Ry
     Gradient error          =      1.5E-03 Ry/Bohr
     Cell gradient error     =      1.6E+00 kbar

     number of scf cycles    =  25
     number of bfgs steps    =  24

     enthalpy           old  =   -8165.8564651426 Ry
     enthalpy           new  =   -8165.8569774016 Ry

     CASE: enthalpy          _new < enthalpy          _old

     new trust radius        =       0.0236831689 bohr
     new conv_thr            =       0.0000000015 Ry

     new unit-cell volume =   6219.57947 a.u.^3 (   921.64659 Ang^3 )
     density =      5.19481 g/cm^3

CELL_PARAMETERS (angstrom)
   8.432271529   0.000000000   0.000000000
   0.000000000   8.890730817   0.000000000
   0.000000000   0.000000000  12.293693356

ATOMIC_POSITIONS (crystal)
Cs               0.4698243520        0.4204400241        0.2500000000
Cs               0.5301756480        0.5795599759        0.7500000000
Cs              -0.0301756480        0.0795599759        0.7500000000
Cs               1.0301756480        0.9204400241        0.2500000000
Pb               0.5000000000        0.0000000000       -0.0000000000
Pb               0.5000000000       -0.0000000000        0.5000000000
Pb               0.0000000000        0.5000000000       -0.0000000000
Pb              -0.0000000000        0.5000000000        0.5000000000
I                0.5889691437        0.0080014835        0.2500000000
I                0.4110308563        0.9919985165        0.7500000000
I                0.0889691437        0.4919985165        0.7500000000
I                0.9110308563        0.5080014835        0.2500000000
I                0.6879909565        0.3064573533        0.9637019268
I                0.3120090435        0.6935426467        0.4637019268
I                0.1879909565        0.1935426467        0.0362980732
I                0.8120090435        0.8064573533        0.5362980732
I                0.3120090435        0.6935426467        0.0362980732
I                0.6879909565        0.3064573533        0.5362980732
I                0.8120090435        0.8064573533        0.9637019268
I                0.1879909565        0.1935426467        0.4637019268



     Writing config-only to output data dir ./tmp/cspbi3_gamma_s1.save/ :
     XML data file
     NEW-OLD atomic charge density approx. for the potential
     New effective cutoffs (rho, wfc):  496.43   62.03

     total cpu time spent up to now is    33971.9 secs

     Self-consistent Calculation

     iteration #  1     ecut=    60.00 Ry     beta= 0.50
     Davidson diagonalization with overlap
     ethr =  1.00E-06,  avg # of iterations =  3.0

     Threshold (ethr) on eigenvalues was too large:
     Diagonalizing with lowered threshold

     Davidson diagonalization with overlap
     ethr =  1.01E-08,  avg # of iterations =  6.8

     total cpu time spent up to now is    34285.3 secs

     total energy              =   -8165.85707026 Ry
     estimated scf accuracy    <       0.00003001 Ry

     iteration #  2     ecut=    60.00 Ry     beta= 0.50
     Davidson diagonalization with overlap
     ethr =  1.70E-08,  avg # of iterations =  4.1

     total cpu time spent up to now is    34412.9 secs

     total energy              =   -8165.85708361 Ry
     estimated scf accuracy    <       0.00000429 Ry

     iteration #  3     ecut=    60.00 Ry     beta= 0.50
     Davidson diagonalization with overlap
     ethr =  2.44E-09,  avg # of iterations =  1.2

     total cpu time spent up to now is    34493.6 secs

     total energy              =   -8165.85708564 Ry
     estimated scf accuracy    <       0.00000147 Ry

     iteration #  4     ecut=    60.00 Ry     beta= 0.50
     Davidson diagonalization with overlap
     ethr =  8.33E-10,  avg # of iterations =  4.8

     total cpu time spent up to now is    34616.6 secs

     total energy              =   -8165.85708613 Ry
     estimated scf accuracy    <       0.00000067 Ry

     iteration #  5     ecut=    60.00 Ry     beta= 0.50
     Davidson diagonalization with overlap
     ethr =  3.83E-10,  avg # of iterations =  2.0

     total cpu time spent up to now is    34703.8 secs

     total energy              =   -8165.85708632 Ry
     estimated scf accuracy    <       0.00000088 Ry

     iteration #  6     ecut=    60.00 Ry     beta= 0.50
     Davidson diagonalization with overlap
     ethr =  3.83E-10,  avg # of iterations =  2.2

     total cpu time spent up to now is    34793.9 secs

     total energy              =   -8165.85708637 Ry
     estimated scf accuracy    <       0.00000004 Ry

     iteration #  7     ecut=    60.00 Ry     beta= 0.50
     Davidson diagonalization with overlap
     ethr =  2.26E-11,  avg # of iterations =  4.6

     total cpu time spent up to now is    34927.8 secs

     total energy              =   -8165.85708639 Ry
     estimated scf accuracy    <       0.00000001 Ry

     iteration #  8     ecut=    60.00 Ry     beta= 0.50
     Davidson diagonalization with overlap
     ethr =  6.67E-12,  avg # of iterations =  1.1

     total cpu time spent up to now is    35007.3 secs

     total energy              =   -8165.85708638 Ry
     estimated scf accuracy    <          6.8E-09 Ry

     iteration #  9     ecut=    60.00 Ry     beta= 0.50
     Davidson diagonalization with overlap
     ethr =  3.86E-12,  avg # of iterations =  4.0

     total cpu time spent up to now is    35117.6 secs

     End of self-consistent calculation

          k = 0.0000 0.0000 0.0000 ( 50101 PWs)   bands (ev):

   -17.2384 -17.2377 -17.2363 -17.2358 -13.0577 -13.0557 -13.0554 -13.0506
   -13.0431 -13.0357 -13.0344 -13.0343 -13.0010 -13.0010 -13.0006 -13.0006
   -12.9973 -12.9970 -12.9969 -12.9966 -12.9921 -12.9917 -12.9913 -12.9910
    -8.7641  -8.5723  -8.2986  -8.2691  -8.2603  -8.2368  -8.2307  -8.2070
    -8.2051  -8.0264  -8.0176  -8.0149  -4.9600  -4.4434  -4.1128  -4.1080
    -4.1005  -4.0959  -4.0947  -4.0911  -4.0901  -4.0798  -4.0718  -4.0512
    -4.0358  -4.0302  -3.8802  -3.4256  -0.0052   0.0447   0.0635   0.1378
     0.2040   0.3514   1.1156   1.4167   1.4222   1.4421   1.4759   1.5013
     1.7471   1.8986   1.9353   2.0042   2.0263   2.0568   2.0727   2.0853
     2.1245   2.1317   2.1384   2.1419   2.1510   2.3573   2.4373   2.4513
     2.4546   2.4778   2.4780   2.5412   2.7302   2.7303   3.0193   3.4688

          k = 0.0000 0.0000-0.3488 ( 50118 PWs)   bands (ev):

   -17.2381 -17.2381 -17.2360 -17.2360 -13.0555 -13.0555 -13.0504 -13.0504
   -13.0432 -13.0432 -13.0344 -13.0344 -13.0008 -13.0008 -13.0008 -13.0008
   -12.9971 -12.9971 -12.9968 -12.9968 -12.9919 -12.9919 -12.9911 -12.9911
    -8.6893  -8.6893  -8.2671  -8.2671  -8.2479  -8.2479  -8.2189  -8.2189
    -8.1079  -8.1079  -8.0214  -8.0214  -4.7128  -4.7128  -4.1115  -4.1115
    -4.1061  -4.1061  -4.0868  -4.0868  -4.0566  -4.0566  -4.0532  -4.0532
    -4.0451  -4.0451  -3.7150  -3.7150   0.0912   0.0912   0.1263   0.1263
     0.7757   0.7757   1.0267   1.0267   1.2727   1.2727   1.5099   1.5099
     1.6220   1.6220   1.9088   1.9088   2.0224   2.0224   2.0880   2.0880
     2.1593   2.1593   2.1748   2.1748   2.3154   2.3154   2.3718   2.3718
     2.4100   2.4100   2.4660   2.4660   2.6553   2.6553   3.1047   3.1047

          k = 0.0000 0.3216 0.0000 ( 50121 PWs)   bands (ev):

   -17.2379 -17.2372 -17.2368 -17.2362 -13.0560 -13.0530 -13.0503 -13.0498
   -13.0417 -13.0397 -13.0391 -13.0375 -13.0010 -13.0010 -13.0006 -13.0006
   -12.9972 -12.9970 -12.9969 -12.9967 -12.9919 -12.9916 -12.9915 -12.9912
    -8.6944  -8.5087  -8.4989  -8.3329  -8.2520  -8.2377  -8.1715  -8.1601
    -8.1056  -8.0778  -8.0651  -8.0305  -4.7356  -4.2892  -4.2748  -4.1214
    -4.1063  -4.0930  -4.0907  -4.0793  -4.0633  -4.0616  -4.0601  -4.0560
    -4.0541  -4.0018  -3.9907  -3.7010   0.0777   0.1748   0.3489   0.5154
     0.5382   0.5892   1.1082   1.1604   1.3078   1.3201   1.3579   1.3846
     1.5491   1.6309   1.7405   1.8129   1.9352   2.0047   2.0249   2.0755
     2.0779   2.1004   2.2033   2.2167   2.2279   2.3444   2.3463   2.3510
     2.3911   2.4225   2.4616   2.5458   2.6727   2.7414   2.8081   3.0381

          k = 0.0000 0.3216-0.3488 ( 50184 PWs)   bands (ev):

   -17.2375 -17.2375 -17.2365 -17.2365 -13.0504 -13.0504 -13.0487 -13.0487
   -13.0448 -13.0448 -13.0396 -13.0396 -13.0008 -13.0008 -13.0008 -13.0008
   -12.9971 -12.9971 -12.9969 -12.9969 -12.9917 -12.9917 -12.9914 -12.9914
    -8.6197  -8.6197  -8.4448  -8.4448  -8.1733  -8.1733  -8.1486  -8.1486
    -8.1105  -8.1105  -8.0708  -8.0708  -4.5080  -4.5080  -4.1312  -4.1312
    -4.0993  -4.0993  -4.0965  -4.0965  -4.0750  -4.0750  -4.0577  -4.0577
    -4.0360  -4.0360  -3.9344  -3.9344   0.4198   0.4198   0.4949   0.4949
     0.8668   0.8668   0.9069   0.9069   1.1958   1.1958   1.2510   1.2510
     1.6104   1.6104   1.7567   1.7567   1.9039   1.9039   1.9108   1.9108
     2.0022   2.0022   2.0752   2.0752   2.3776   2.3776   2.3790   2.3790
     2.4730   2.4730   2.4756   2.4756   2.6993   2.6993   2.7455   2.7455

          k = 0.3390 0.0000 0.0000 ( 50214 PWs)   bands (ev):

   -17.2380 -17.2374 -17.2365 -17.2361 -13.0560 -13.0530 -13.0503 -13.0498
   -13.0417 -13.0397 -13.0391 -13.0375 -13.0010 -13.0010 -13.0006 -13.0006
   -12.9972 -12.9970 -12.9969 -12.9967 -12.9919 -12.9916 -12.9915 -12.9912
    -8.6899  -8.4967  -8.4924  -8.3116  -8.2473  -8.2400  -8.2026  -8.1830
    -8.1059  -8.0771  -8.0731  -8.0298  -4.7312  -4.2679  -4.2607  -4.1106
    -4.1018  -4.0908  -4.0877  -4.0876  -4.0801  -4.0567  -4.0549  -4.0511
    -4.0440  -4.0086  -3.9955  -3.7109   0.0798   0.1911   0.3192   0.4754
     0.5219   0.6847   1.0019   1.2095   1.2991   1.3106   1.3662   1.5086
     1.5230   1.6456   1.7725   1.7898   1.9828   2.0130   2.0544   2.0606
     2.1198   2.1224   2.1805   2.2060   2.2471   2.2679   2.3215   2.3691
     2.3890   2.4383   2.4763   2.5238   2.6090   2.6145   2.7716   2.9635

          k = 0.3390 0.0000-0.3488 ( 50200 PWs)   bands (ev):

   -17.2377 -17.2377 -17.2364 -17.2364 -13.0504 -13.0504 -13.0487 -13.0487
   -13.0448 -13.0448 -13.0396 -13.0396 -13.0008 -13.0008 -13.0008 -13.0008
   -12.9971 -12.9971 -12.9969 -12.9969 -12.9917 -12.9917 -12.9914 -12.9914
    -8.6152  -8.6152  -8.4307  -8.4307  -8.1954  -8.1954  -8.1448  -8.1448
    -8.1121  -8.1121  -8.0764  -8.0764  -4.5002  -4.5002  -4.1192  -4.1192
    -4.1090  -4.1090  -4.0819  -4.0819  -4.0563  -4.0563  -4.0476  -4.0476
    -4.0458  -4.0458  -3.9582  -3.9582   0.3881   0.3881   0.5404   0.5404
     0.7984   0.7984   0.9471   0.9471   1.1312   1.1312   1.3012   1.3012
     1.6921   1.6921   1.7387   1.7387   1.8899   1.8899   1.9766   1.9766
     2.0763   2.0763   2.1394   2.1394   2.3277   2.3277   2.4021   2.4021
     2.4261   2.4261   2.4560   2.4560   2.5703   2.5703   2.6392   2.6392

          k = 0.3390 0.3216 0.0000 ( 50152 PWs)   bands (ev):

   -17.2376 -17.2372 -17.2368 -17.2364 -13.0572 -13.0550 -13.0499 -13.0455
   -13.0455 -13.0408 -13.0379 -13.0354 -13.0010 -13.0010 -13.0006 -13.0006
   -12.9971 -12.9971 -12.9969 -12.9968 -12.9918 -12.9916 -12.9915 -12.9913
    -8.6342  -8.5246  -8.4232  -8.2736  -8.2669  -8.2507  -8.2469  -8.2319
    -8.1764  -8.1353  -8.0232  -7.9956  -4.5942  -4.3650  -4.1826  -4.1005
    -4.0971  -4.0884  -4.0828  -4.0795  -4.0716  -4.0702  -4.0578  -4.0531
    -4.0526  -4.0261  -3.9384  -3.7867   0.0966   0.1479   0.1526   0.2931
     0.5162   0.6800   1.0312   1.2335   1.2385   1.2431   1.3406   1.6406
     1.6441   1.7308   1.8336   1.9444   1.9804   2.0279   2.0372   2.0563
     2.0764   2.1586   2.1995   2.2040   2.2477   2.2604   2.2958   2.3152
     2.3176   2.3871   2.4148   2.4709   2.6436   2.7294   2.8280   3.0245

          k = 0.3390 0.3216-0.3488 ( 50168 PWs)   bands (ev):

   -17.2373 -17.2373 -17.2367 -17.2367 -13.0522 -13.0522 -13.0491 -13.0491
   -13.0430 -13.0430 -13.0392 -13.0392 -13.0008 -13.0008 -13.0008 -13.0008
   -12.9970 -12.9970 -12.9969 -12.9969 -12.9916 -12.9916 -12.9914 -12.9914
    -8.5564  -8.5564  -8.4458  -8.4458  -8.2546  -8.2546  -8.1853  -8.1853
    -8.0840  -8.0840  -8.0644  -8.0644  -4.3812  -4.3812  -4.1838  -4.1838
    -4.0958  -4.0958  -4.0808  -4.0808  -4.0659  -4.0659  -4.0482  -4.0482
    -4.0318  -4.0318  -3.9844  -3.9844   0.2125   0.2125   0.5783   0.5783
     0.7779   0.7779   0.9264   0.9264   1.1194   1.1194   1.3275   1.3275
     1.6450   1.6450   1.7519   1.7519   1.9531   1.9531   2.0059   2.0059
     2.1202   2.1202   2.2276   2.2276   2.2848   2.2848   2.3502   2.3502
     2.3996   2.3996   2.4631   2.4631   2.5944   2.5944   2.7183   2.7183

     highest occupied level (ev):     3.4688

!    total energy              =   -8165.85708638 Ry
     estimated scf accuracy    <          1.1E-09 Ry

     The total energy is the sum of the following terms:
     one-electron contribution =    -323.82462051 Ry
     hartree contribution      =     250.87314533 Ry
     xc contribution           =    -792.80326537 Ry
     ewald contribution        =    -650.48174679 Ry
     one-center paw contrib.   =   -6649.62059905 Ry

     convergence has been achieved in   9 iterations

     Forces acting on atoms (cartesian axes, Ry/au):

     atom    1 type  1   force =    -0.00060006   -0.00058011    0.00000000
     atom    2 type  1   force =     0.00060006    0.00058011    0.00000000
     atom    3 type  1   force =    -0.00060006    0.00058011    0.00000000
     atom    4 type  1   force =     0.00060006   -0.00058011    0.00000000
     atom    5 type  2   force =     0.00000000    0.00000000   -0.00000000
     atom    6 type  2   force =    -0.00000000    0.00000000   -0.00000000
     atom    7 type  2   force =     0.00000000    0.00000000    0.00000000
     atom    8 type  2   force =     0.00000000    0.00000000    0.00000000
     atom    9 type  3   force =    -0.00121952    0.00006056    0.00000000
     atom   10 type  3   force =     0.00121952   -0.00006056    0.00000000
     atom   11 type  3   force =    -0.00121952   -0.00006056    0.00000000
     atom   12 type  3   force =     0.00121952    0.00006056   -0.00000000
     atom   13 type  3   force =    -0.00010555   -0.00026022   -0.00142923
     atom   14 type  3   force =     0.00010555    0.00026022   -0.00142923
     atom   15 type  3   force =    -0.00010555    0.00026022    0.00142923
     atom   16 type  3   force =     0.00010555   -0.00026022    0.00142923
     atom   17 type  3   force =     0.00010555    0.00026022    0.00142923
     atom   18 type  3   force =    -0.00010555   -0.00026022    0.00142923
     atom   19 type  3   force =     0.00010555   -0.00026022   -0.00142923
     atom   20 type  3   force =    -0.00010555    0.00026022   -0.00142923

     Total force =     0.005072     Total SCF correction =     0.000005


     Computing stress (Cartesian axis) and pressure

          total   stress  (Ry/bohr**3)                   (kbar)     P=        0.99
   0.00000469   0.00000000   0.00000000            0.69        0.00        0.00
   0.00000000   0.00000566   0.00000000            0.00        0.83        0.00
   0.00000000   0.00000000   0.00000990            0.00        0.00        1.46

     Energy error            =      1.1E-04 Ry
     Gradient error          =      1.4E-03 Ry/Bohr
     Cell gradient error     =      1.5E+00 kbar

     number of scf cycles    =  26
     number of bfgs steps    =  25

     enthalpy           old  =   -8165.8569774016 Ry
     enthalpy           new  =   -8165.8570863824 Ry

     CASE: enthalpy          _new < enthalpy          _old

     new trust radius        =       0.0271819635 bohr
     new conv_thr            =       0.0000000011 Ry

     new unit-cell volume =   6232.53259 a.u.^3 (   923.56604 Ang^3 )
     density =      5.18401 g/cm^3

CELL_PARAMETERS (angstrom)
   8.431285502   0.000000000   0.000000000
   0.000000000   8.906052546   0.000000000
   0.000000000   0.000000000  12.299541098

ATOMIC_POSITIONS (crystal)
Cs               0.4696636298        0.4204617688        0.2500000000
Cs               0.5303363702        0.5795382312        0.7500000000
Cs              -0.0303363702        0.0795382312        0.7500000000
Cs               1.0303363702        0.9204617688        0.2500000000
Pb               0.5000000000        0.0000000000       -0.0000000000
Pb               0.5000000000       -0.0000000000        0.5000000000
Pb               0.0000000000        0.5000000000       -0.0000000000
Pb              -0.0000000000        0.5000000000        0.5000000000
I                0.5890753839        0.0078179630        0.2500000000
I                0.4109246161        0.9921820370        0.7500000000
I                0.0890753839        0.4921820370        0.7500000000
I                0.9109246161        0.5078179630        0.2500000000
I                0.6880380792        0.3066931268        0.9634225616
I                0.3119619208        0.6933068732        0.4634225616
I                0.1880380792        0.1933068732        0.0365774384
I                0.8119619208        0.8066931268        0.5365774384
I                0.3119619208        0.6933068732        0.0365774384
I                0.6880380792        0.3066931268        0.5365774384
I                0.8119619208        0.8066931268        0.9634225616
I                0.1880380792        0.1933068732        0.4634225616



     Writing config-only to output data dir ./tmp/cspbi3_gamma_s1.save/ :
     XML data file
     NEW-OLD atomic charge density approx. for the potential
     New effective cutoffs (rho, wfc):  496.54   62.04

     total cpu time spent up to now is    35249.7 secs

     Self-consistent Calculation

     iteration #  1     ecut=    60.00 Ry     beta= 0.50
     Davidson diagonalization with overlap
     ethr =  1.00E-06,  avg # of iterations =  3.0

     Threshold (ethr) on eigenvalues was too large:
     Diagonalizing with lowered threshold

     Davidson diagonalization with overlap
     ethr =  3.97E-08,  avg # of iterations =  4.5

     total cpu time spent up to now is    35515.2 secs

     total energy              =   -8165.85713736 Ry
     estimated scf accuracy    <       0.00009731 Ry

     iteration #  2     ecut=    60.00 Ry     beta= 0.50
     Davidson diagonalization with overlap
     ethr =  5.53E-08,  avg # of iterations =  4.1

     total cpu time spent up to now is    35636.1 secs

     total energy              =   -8165.85718061 Ry
     estimated scf accuracy    <       0.00001434 Ry

     iteration #  3     ecut=    60.00 Ry     beta= 0.50
     Davidson diagonalization with overlap
     ethr =  8.15E-09,  avg # of iterations =  1.2

     total cpu time spent up to now is    35720.4 secs

     total energy              =   -8165.85718756 Ry
     estimated scf accuracy    <       0.00000525 Ry

     iteration #  4     ecut=    60.00 Ry     beta= 0.50
     Davidson diagonalization with overlap
     ethr =  2.98E-09,  avg # of iterations =  5.0

     total cpu time spent up to now is    35836.6 secs

     total energy              =   -8165.85718850 Ry
     estimated scf accuracy    <       0.00000368 Ry

     iteration #  5     ecut=    60.00 Ry     beta= 0.50
     Davidson diagonalization with overlap
     ethr =  2.09E-09,  avg # of iterations =  1.0

     total cpu time spent up to now is    35916.8 secs

     total energy              =   -8165.85719009 Ry
     estimated scf accuracy    <       0.00000612 Ry

     iteration #  6     ecut=    60.00 Ry     beta= 0.50
     Davidson diagonalization with overlap
     ethr =  2.09E-09,  avg # of iterations =  3.0

     total cpu time spent up to now is    36016.2 secs

     total energy              =   -8165.85719044 Ry
     estimated scf accuracy    <       0.00000008 Ry

     iteration #  7     ecut=    60.00 Ry     beta= 0.50
     Davidson diagonalization with overlap
     ethr =  4.60E-11,  avg # of iterations =  5.4

     total cpu time spent up to now is    36162.8 secs

     total energy              =   -8165.85719050 Ry
     estimated scf accuracy    <       0.00000007 Ry

     iteration #  8     ecut=    60.00 Ry     beta= 0.50
     Davidson diagonalization with overlap
     ethr =  3.80E-11,  avg # of iterations =  1.0

     total cpu time spent up to now is    36245.6 secs

     total energy              =   -8165.85719048 Ry
     estimated scf accuracy    <       0.00000005 Ry

     iteration #  9     ecut=    60.00 Ry     beta= 0.50
     Davidson diagonalization with overlap
     ethr =  2.66E-11,  avg # of iterations =  4.0

     total cpu time spent up to now is    36364.1 secs

     total energy              =   -8165.85719049 Ry
     estimated scf accuracy    <          6.7E-09 Ry

     iteration # 10     ecut=    60.00 Ry     beta= 0.50
     Davidson diagonalization with overlap
     ethr =  3.78E-12,  avg # of iterations =  2.0

     total cpu time spent up to now is    36459.6 secs

     End of self-consistent calculation

          k = 0.0000 0.0000 0.0000 ( 50101 PWs)   bands (ev):

   -17.2580 -17.2572 -17.2558 -17.2553 -13.0805 -13.0782 -13.0780 -13.0735
   -13.0660 -13.0589 -13.0574 -13.0573 -13.0248 -13.0247 -13.0243 -13.0243
   -13.0208 -13.0205 -13.0204 -13.0202 -13.0155 -13.0152 -13.0148 -13.0145
    -8.7748  -8.5834  -8.3142  -8.2831  -8.2749  -8.2512  -8.2462  -8.2206
    -8.2201  -8.0428  -8.0341  -8.0317  -4.9726  -4.4591  -4.1315  -4.1261
    -4.1190  -4.1147  -4.1136  -4.1110  -4.1085  -4.0989  -4.0907  -4.0701
    -4.0551  -4.0491  -3.9025  -3.4505  -0.0167   0.0353   0.0557   0.1311
     0.1947   0.3367   1.1040   1.4046   1.4087   1.4278   1.4616   1.4854
     1.7320   1.8852   1.9196   1.9841   2.0102   2.0405   2.0547   2.0670
     2.1076   2.1158   2.1198   2.1245   2.1353   2.3413   2.4172   2.4334
     2.4366   2.4592   2.4601   2.5225   2.7096   2.7103   2.9912   3.4396

          k = 0.0000 0.0000-0.3487 ( 50118 PWs)   bands (ev):

   -17.2576 -17.2576 -17.2556 -17.2556 -13.0780 -13.0780 -13.0733 -13.0733
   -13.0663 -13.0663 -13.0574 -13.0574 -13.0246 -13.0246 -13.0245 -13.0245
   -13.0207 -13.0207 -13.0203 -13.0203 -13.0154 -13.0154 -13.0146 -13.0146
    -8.7002  -8.7002  -8.2827  -8.2827  -8.2623  -8.2623  -8.2324  -8.2324
    -8.1242  -8.1242  -8.0379  -8.0379  -4.7267  -4.7267  -4.1302  -4.1302
    -4.1246  -4.1246  -4.1057  -4.1057  -4.0756  -4.0756  -4.0722  -4.0722
    -4.0643  -4.0643  -3.7384  -3.7384   0.0818   0.0818   0.1189   0.1189
     0.7626   0.7626   1.0114   1.0114   1.2602   1.2602   1.4955   1.4955
     1.6083   1.6083   1.8915   1.8915   2.0038   2.0038   2.0708   2.0708
     2.1433   2.1433   2.1563   2.1563   2.2994   2.2994   2.3546   2.3546
     2.3911   2.3911   2.4481   2.4481   2.6364   2.6364   3.0762   3.0762

          k = 0.0000 0.3210 0.0000 ( 50121 PWs)   bands (ev):

   -17.2574 -17.2567 -17.2563 -17.2558 -13.0788 -13.0758 -13.0729 -13.0725
   -13.0646 -13.0625 -13.0621 -13.0606 -13.0248 -13.0247 -13.0243 -13.0243
   -13.0207 -13.0205 -13.0205 -13.0203 -13.0154 -13.0150 -13.0150 -13.0147
    -8.7057  -8.5216  -8.5105  -8.3462  -8.2670  -8.2533  -8.1862  -8.1744
    -8.1220  -8.0935  -8.0808  -8.0474  -4.7504  -4.3079  -4.2918  -4.1398
    -4.1245  -4.1119  -4.1096  -4.0984  -4.0822  -4.0807  -4.0791  -4.0751
    -4.0735  -4.0216  -4.0098  -3.7226   0.0657   0.1636   0.3394   0.5014
     0.5271   0.5768   1.0957   1.1467   1.2947   1.3060   1.3450   1.3699
     1.5346   1.6145   1.7237   1.7974   1.9190   1.9911   2.0094   2.0569
     2.0610   2.0842   2.1863   2.1986   2.2121   2.3269   2.3283   2.3328
     2.3722   2.4033   2.4447   2.5270   2.6539   2.7216   2.7884   3.0172

          k = 0.0000 0.3210-0.3487 ( 50184 PWs)   bands (ev):

   -17.2571 -17.2571 -17.2561 -17.2561 -13.0731 -13.0731 -13.0716 -13.0716
   -13.0678 -13.0678 -13.0625 -13.0625 -13.0245 -13.0245 -13.0245 -13.0245
   -13.0206 -13.0206 -13.0204 -13.0204 -13.0152 -13.0152 -13.0148 -13.0148
    -8.6312  -8.6312  -8.4580  -8.4580  -8.1874  -8.1874  -8.1643  -8.1643
    -8.1268  -8.1268  -8.0866  -8.0866  -4.5236  -4.5236  -4.1499  -4.1499
    -4.1180  -4.1180  -4.1151  -4.1151  -4.0939  -4.0939  -4.0768  -4.0768
    -4.0553  -4.0553  -3.9551  -3.9551   0.4107   0.4107   0.4821   0.4821
     0.8529   0.8529   0.8927   0.8927   1.1834   1.1834   1.2371   1.2371
     1.5950   1.5950   1.7427   1.7427   1.8857   1.8857   1.8942   1.8942
     1.9861   1.9861   2.0565   2.0565   2.3609   2.3609   2.3619   2.3619
     2.4544   2.4544   2.4574   2.4574   2.6803   2.6803   2.7257   2.7257

          k = 0.3391 0.0000 0.0000 ( 50214 PWs)   bands (ev):

   -17.2575 -17.2570 -17.2561 -17.2557 -13.0788 -13.0758 -13.0729 -13.0725
   -13.0646 -13.0625 -13.0621 -13.0606 -13.0248 -13.0247 -13.0243 -13.0243
   -13.0207 -13.0205 -13.0205 -13.0203 -13.0154 -13.0150 -13.0150 -13.0147
    -8.7011  -8.5094  -8.5038  -8.3244  -8.2629  -8.2557  -8.2175  -8.1979
    -8.1228  -8.0920  -8.0890  -8.0464  -4.7461  -4.2873  -4.2781  -4.1291
    -4.1205  -4.1091  -4.1066  -4.1063  -4.0986  -4.0755  -4.0739  -4.0703
    -4.0632  -4.0273  -4.0150  -3.7323   0.0676   0.1789   0.3081   0.4648
     0.5108   0.6735   0.9858   1.1954   1.2828   1.2965   1.3519   1.4943
     1.5080   1.6331   1.7577   1.7755   1.9668   1.9988   2.0387   2.0472
     2.1052   2.1073   2.1649   2.1890   2.2288   2.2515   2.3033   2.3520
     2.3696   2.4198   2.4554   2.5050   2.5889   2.5932   2.7493   2.9383

          k = 0.3391 0.0000-0.3487 ( 50200 PWs)   bands (ev):

   -17.2572 -17.2572 -17.2559 -17.2559 -13.0731 -13.0731 -13.0716 -13.0716
   -13.0678 -13.0678 -13.0625 -13.0625 -13.0245 -13.0245 -13.0245 -13.0245
   -13.0206 -13.0206 -13.0204 -13.0204 -13.0152 -13.0152 -13.0148 -13.0148
    -8.6266  -8.6266  -8.4437  -8.4437  -8.2105  -8.2105  -8.1605  -8.1605
    -8.1281  -8.1281  -8.0919  -8.0919  -4.5160  -4.5160  -4.1382  -4.1382
    -4.1275  -4.1275  -4.1006  -4.1006  -4.0753  -4.0753  -4.0667  -4.0667
    -4.0650  -4.0650  -3.9783  -3.9783   0.3771   0.3771   0.5303   0.5303
     0.7850   0.7850   0.9324   0.9324   1.1150   1.1150   1.2872   1.2872
     1.6788   1.6788   1.7243   1.7243   1.8751   1.8751   1.9608   1.9608
     2.0591   2.0591   2.1232   2.1232   2.3117   2.3117   2.3829   2.3829
     2.4078   2.4078   2.4380   2.4380   2.5496   2.5496   2.6165   2.6165

          k = 0.3391 0.3210 0.0000 ( 50152 PWs)   bands (ev):

   -17.2572 -17.2567 -17.2563 -17.2560 -13.0799 -13.0778 -13.0725 -13.0683
   -13.0683 -13.0636 -13.0610 -13.0584 -13.0248 -13.0247 -13.0243 -13.0243
   -13.0207 -13.0206 -13.0204 -13.0203 -13.0153 -13.0151 -13.0149 -13.0147
    -8.6460  -8.5375  -8.4354  -8.2873  -8.2811  -8.2643  -8.2625  -8.2471
    -8.1914  -8.1503  -8.0399  -8.0125  -4.6106  -4.3836  -4.2004  -4.1189
    -4.1158  -4.1070  -4.1018  -4.0982  -4.0904  -4.0893  -4.0769  -4.0723
    -4.0716  -4.0454  -3.9581  -3.8079   0.0845   0.1386   0.1408   0.2838
     0.5042   0.6687   1.0172   1.2203   1.2241   1.2299   1.3266   1.6255
     1.6293   1.7145   1.8192   1.9284   1.9652   2.0131   2.0211   2.0404
     2.0606   2.1414   2.1814   2.1884   2.2319   2.2445   2.2779   2.2975
     2.3002   2.3691   2.3960   2.4506   2.6233   2.7089   2.8059   2.9997

          k = 0.3391 0.3210-0.3487 ( 50168 PWs)   bands (ev):

   -17.2569 -17.2569 -17.2562 -17.2562 -13.0750 -13.0750 -13.0720 -13.0720
   -13.0659 -13.0659 -13.0622 -13.0622 -13.0245 -13.0245 -13.0245 -13.0245
   -13.0205 -13.0205 -13.0204 -13.0204 -13.0151 -13.0151 -13.0149 -13.0149
    -8.5684  -8.5684  -8.4591  -8.4591  -8.2684  -8.2684  -8.2003  -8.2003
    -8.1001  -8.1001  -8.0806  -8.0806  -4.3982  -4.3982  -4.2024  -4.2024
    -4.1144  -4.1144  -4.0996  -4.0996  -4.0850  -4.0850  -4.0672  -4.0672
    -4.0511  -4.0511  -4.0045  -4.0045   0.2033   0.2033   0.5663   0.5663
     0.7652   0.7652   0.9126   0.9126   1.1053   1.1053   1.3140   1.3140
     1.6307   1.6307   1.7369   1.7369   1.9368   1.9368   1.9900   1.9900
     2.1027   2.1027   2.2109   2.2109   2.2679   2.2679   2.3337   2.3337
     2.3809   2.3809   2.4439   2.4439   2.5746   2.5746   2.6956   2.6956

     highest occupied level (ev):     3.4396

!    total energy              =   -8165.85719049 Ry
     estimated scf accuracy    <          8.2E-10 Ry

     The total energy is the sum of the following terms:
     one-electron contribution =    -324.36156958 Ry
     hartree contribution      =     251.01409689 Ry
     xc contribution           =    -792.78775770 Ry
     ewald contribution        =    -650.10216363 Ry
     one-center paw contrib.   =   -6649.61979647 Ry

     convergence has been achieved in  10 iterations

     Forces acting on atoms (cartesian axes, Ry/au):

     atom    1 type  1   force =    -0.00054330   -0.00081821    0.00000000
     atom    2 type  1   force =     0.00054330    0.00081821    0.00000000
     atom    3 type  1   force =    -0.00054330    0.00081821    0.00000000
     atom    4 type  1   force =     0.00054330   -0.00081821    0.00000000
     atom    5 type  2   force =     0.00000000    0.00000000    0.00000000
     atom    6 type  2   force =     0.00000000    0.00000000    0.00000000
     atom    7 type  2   force =     0.00000000   -0.00000000   -0.00000000
     atom    8 type  2   force =     0.00000000    0.00000000   -0.00000000
     atom    9 type  3   force =    -0.00131404    0.00022952    0.00000000
     atom   10 type  3   force =     0.00131404   -0.00022952    0.00000000
     atom   11 type  3   force =    -0.00131404   -0.00022952    0.00000000
     atom   12 type  3   force =     0.00131404    0.00022952   -0.00000000
     atom   13 type  3   force =    -0.00032477   -0.00072621   -0.00126956
     atom   14 type  3   force =     0.00032477    0.00072621   -0.00126956
     atom   15 type  3   force =    -0.00032477    0.00072621    0.00126956
     atom   16 type  3   force =     0.00032477   -0.00072621    0.00126956
     atom   17 type  3   force =     0.00032477    0.00072621    0.00126956
     atom   18 type  3   force =    -0.00032477   -0.00072621    0.00126956
     atom   19 type  3   force =     0.00032477   -0.00072621   -0.00126956
     atom   20 type  3   force =    -0.00032477    0.00072621   -0.00126956

     Total force =     0.005379     Total SCF correction =     0.000006


     Computing stress (Cartesian axis) and pressure

          total   stress  (Ry/bohr**3)                   (kbar)     P=        0.53
   0.00000267   0.00000000   0.00000000            0.39        0.00        0.00
   0.00000000   0.00000058   0.00000000            0.00        0.09        0.00
   0.00000000   0.00000000   0.00000763            0.00        0.00        1.12

     Energy error            =      1.0E-04 Ry
     Gradient error          =      1.3E-03 Ry/Bohr
     Cell gradient error     =      1.1E+00 kbar

     number of scf cycles    =  27
     number of bfgs steps    =  26

     enthalpy           old  =   -8165.8570863824 Ry
     enthalpy           new  =   -8165.8571904916 Ry

     CASE: enthalpy          _new < enthalpy          _old

     new trust radius        =       0.0188010729 bohr
     new conv_thr            =       0.0000000010 Ry

     new unit-cell volume =   6243.83649 a.u.^3 (   925.24111 Ang^3 )
     density =      5.17463 g/cm^3

CELL_PARAMETERS (angstrom)
   8.429656979   0.000000000   0.000000000
   0.000000000   8.916657422   0.000000000
   0.000000000   0.000000000  12.309571530

ATOMIC_POSITIONS (crystal)
Cs               0.4694596827        0.4203751738        0.2500000000
Cs               0.5305403173        0.5796248262        0.7500000000
Cs              -0.0305403173        0.0796248262        0.7500000000
Cs               1.0305403173        0.9203751738        0.2500000000
Pb               0.5000000000        0.0000000000       -0.0000000000
Pb               0.5000000000       -0.0000000000        0.5000000000
Pb               0.0000000000        0.5000000000       -0.0000000000
Pb              -0.0000000000        0.5000000000        0.5000000000
I                0.5890239033        0.0076877580        0.2500000000
I                0.4109760967        0.9923122420        0.7500000000
I                0.0890239033        0.4923122420        0.7500000000
I                0.9109760967        0.5076877580        0.2500000000
I                0.6880293978        0.3067505013        0.9630895618
I                0.3119706022        0.6932494987        0.4630895618
I                0.1880293978        0.1932494987        0.0369104382
I                0.8119706022        0.8067505013        0.5369104382
I                0.3119706022        0.6932494987        0.0369104382
I                0.6880293978        0.3067505013        0.5369104382
I                0.8119706022        0.8067505013        0.9630895618
I                0.1880293978        0.1932494987        0.4630895618



     Writing config-only to output data dir ./tmp/cspbi3_gamma_s1.save/ :
     XML data file
     NEW-OLD atomic charge density approx. for the potential
     New effective cutoffs (rho, wfc):  496.71   62.06

     total cpu time spent up to now is    36593.5 secs

     Self-consistent Calculation

     iteration #  1     ecut=    60.00 Ry     beta= 0.50
     Davidson diagonalization with overlap
     ethr =  1.00E-06,  avg # of iterations =  3.0

     Threshold (ethr) on eigenvalues was too large:
     Diagonalizing with lowered threshold

     Davidson diagonalization with overlap
     ethr =  2.87E-08,  avg # of iterations =  4.8

     total cpu time spent up to now is    36859.5 secs

     total energy              =   -8165.85725537 Ry
     estimated scf accuracy    <       0.00006876 Ry

     iteration #  2     ecut=    60.00 Ry     beta= 0.50
     Davidson diagonalization with overlap
     ethr =  3.91E-08,  avg # of iterations =  4.0

     total cpu time spent up to now is    36977.0 secs

     total energy              =   -8165.85728597 Ry
     estimated scf accuracy    <       0.00000900 Ry

     iteration #  3     ecut=    60.00 Ry     beta= 0.50
     Davidson diagonalization with overlap
     ethr =  5.12E-09,  avg # of iterations =  1.6

     total cpu time spent up to now is    37061.3 secs

     total energy              =   -8165.85729122 Ry
     estimated scf accuracy    <       0.00000339 Ry

     iteration #  4     ecut=    60.00 Ry     beta= 0.50
     Davidson diagonalization with overlap
     ethr =  1.92E-09,  avg # of iterations =  5.0

     total cpu time spent up to now is    37185.7 secs

     total energy              =   -8165.85729227 Ry
     estimated scf accuracy    <       0.00000289 Ry

     iteration #  5     ecut=    60.00 Ry     beta= 0.50
     Davidson diagonalization with overlap
     ethr =  1.64E-09,  avg # of iterations =  1.4

     total cpu time spent up to now is    37272.0 secs

     total energy              =   -8165.85729326 Ry
     estimated scf accuracy    <       0.00000497 Ry

     iteration #  6     ecut=    60.00 Ry     beta= 0.50
     Davidson diagonalization with overlap
     ethr =  1.64E-09,  avg # of iterations =  3.0

     total cpu time spent up to now is    37370.8 secs

     total energy              =   -8165.85729354 Ry
     estimated scf accuracy    <       0.00000006 Ry

     iteration #  7     ecut=    60.00 Ry     beta= 0.50
     Davidson diagonalization with overlap
     ethr =  3.37E-11,  avg # of iterations =  4.6

     total cpu time spent up to now is    37499.3 secs

     total energy              =   -8165.85729356 Ry
     estimated scf accuracy    <       0.00000004 Ry

     iteration #  8     ecut=    60.00 Ry     beta= 0.50
     Davidson diagonalization with overlap
     ethr =  2.05E-11,  avg # of iterations =  2.8

     total cpu time spent up to now is    37595.7 secs

     End of self-consistent calculation

          k = 0.0000 0.0000 0.0000 ( 50101 PWs)   bands (ev):

   -17.2750 -17.2743 -17.2729 -17.2724 -13.1003 -13.0980 -13.0977 -13.0934
   -13.0860 -13.0790 -13.0773 -13.0773 -13.0453 -13.0452 -13.0449 -13.0448
   -13.0413 -13.0411 -13.0409 -13.0407 -13.0359 -13.0356 -13.0352 -13.0349
    -8.7843  -8.5940  -8.3265  -8.2943  -8.2881  -8.2642  -8.2588  -8.2340
    -8.2332  -8.0574  -8.0485  -8.0463  -4.9840  -4.4740  -4.1476  -4.1419
    -4.1353  -4.1314  -4.1302  -4.1276  -4.1245  -4.1157  -4.1072  -4.0867
    -4.0721  -4.0659  -3.9211  -3.4721  -0.0254   0.0262   0.0475   0.1266
     0.1857   0.3228   1.0935   1.3932   1.3961   1.4161   1.4489   1.4733
     1.7196   1.8744   1.9065   1.9658   1.9972   2.0269   2.0381   2.0514
     2.0913   2.1019   2.1028   2.1085   2.1233   2.3283   2.3987   2.4173
     2.4220   2.4429   2.4452   2.5056   2.6903   2.6929   2.9679   3.4147

          k = 0.0000 0.0000-0.3484 ( 50118 PWs)   bands (ev):

   -17.2747 -17.2747 -17.2726 -17.2726 -13.0977 -13.0977 -13.0932 -13.0932
   -13.0863 -13.0863 -13.0773 -13.0773 -13.0451 -13.0451 -13.0450 -13.0450
   -13.0412 -13.0412 -13.0408 -13.0408 -13.0358 -13.0358 -13.0350 -13.0350
    -8.7101  -8.7101  -8.2952  -8.2952  -8.2754  -8.2754  -8.2446  -8.2446
    -8.1381  -8.1381  -8.0523  -8.0523  -4.7396  -4.7396  -4.1464  -4.1464
    -4.1409  -4.1409  -4.1222  -4.1222  -4.0922  -4.0922  -4.0888  -4.0888
    -4.0810  -4.0810  -3.7579  -3.7579   0.0727   0.0727   0.1109   0.1109
     0.7517   0.7517   0.9992   0.9992   1.2487   1.2487   1.4842   1.4842
     1.5960   1.5960   1.8758   1.8758   1.9869   1.9869   2.0563   2.0563
     2.1296   2.1296   2.1393   2.1393   2.2853   2.2853   2.3400   2.3400
     2.3754   2.3754   2.4321   2.4321   2.6202   2.6202   3.0521   3.0521

          k = 0.0000 0.3206 0.0000 ( 50121 PWs)   bands (ev):

   -17.2745 -17.2738 -17.2734 -17.2729 -13.0987 -13.0957 -13.0927 -13.0923
   -13.0846 -13.0824 -13.0820 -13.0806 -13.0453 -13.0453 -13.0448 -13.0448
   -13.0412 -13.0410 -13.0410 -13.0408 -13.0358 -13.0354 -13.0354 -13.0351
    -8.7156  -8.5327  -8.5217  -8.3585  -8.2789  -8.2658  -8.1998  -8.1874
    -8.1360  -8.1076  -8.0947  -8.0619  -4.7632  -4.3234  -4.3073  -4.1557
    -4.1407  -4.1283  -4.1261  -4.1150  -4.0987  -4.0972  -4.0958  -4.0920
    -4.0904  -4.0389  -4.0269  -3.7420   0.0570   0.1563   0.3300   0.4892
     0.5152   0.5653   1.0838   1.1347   1.2817   1.2938   1.3333   1.3564
     1.5221   1.6015   1.7094   1.7845   1.9057   1.9799   1.9967   2.0409
     2.0476   2.0703   2.1709   2.1824   2.1974   2.3108   2.3128   2.3172
     2.3570   2.3858   2.4304   2.5106   2.6363   2.7043   2.7702   2.9983

          k = 0.0000 0.3206-0.3484 ( 50184 PWs)   bands (ev):

   -17.2741 -17.2741 -17.2731 -17.2731 -13.0928 -13.0928 -13.0915 -13.0915
   -13.0878 -13.0878 -13.0824 -13.0824 -13.0451 -13.0451 -13.0450 -13.0450
   -13.0411 -13.0411 -13.0409 -13.0409 -13.0356 -13.0356 -13.0353 -13.0353
    -8.6415  -8.6415  -8.4694  -8.4694  -8.2000  -8.2000  -8.1778  -8.1778
    -8.1408  -8.1408  -8.1007  -8.1007  -4.5376  -4.5376  -4.1659  -4.1659
    -4.1344  -4.1344  -4.1316  -4.1316  -4.1104  -4.1104  -4.0935  -4.0935
    -4.0722  -4.0722  -3.9728  -3.9728   0.4015   0.4015   0.4709   0.4709
     0.8413   0.8413   0.8810   0.8810   1.1715   1.1715   1.2250   1.2250
     1.5820   1.5820   1.7307   1.7307   1.8688   1.8688   1.8787   1.8787
     1.9736   1.9736   2.0410   2.0410   2.3468   2.3468   2.3476   2.3476
     2.4379   2.4379   2.4410   2.4410   2.6636   2.6636   2.7076   2.7076

          k = 0.3391 0.0000 0.0000 ( 50214 PWs)   bands (ev):

   -17.2746 -17.2741 -17.2731 -17.2728 -13.0987 -13.0957 -13.0927 -13.0923
   -13.0847 -13.0824 -13.0820 -13.0806 -13.0453 -13.0453 -13.0448 -13.0448
   -13.0412 -13.0410 -13.0410 -13.0408 -13.0358 -13.0354 -13.0354 -13.0351
    -8.7109  -8.5201  -8.5148  -8.3363  -8.2754  -8.2683  -8.2310  -8.2113
    -8.1372  -8.1057  -8.1031  -8.0607  -4.7589  -4.3032  -4.2940  -4.1453
    -4.1369  -4.1252  -4.1232  -4.1226  -4.1147  -4.0920  -4.0905  -4.0870
    -4.0800  -4.0443  -4.0320  -3.7514   0.0588   0.1705   0.2979   0.4546
     0.5000   0.6618   0.9725   1.1831   1.2689   1.2839   1.3391   1.4811
     1.4959   1.6215   1.7460   1.7623   1.9534   1.9860   2.0256   2.0351
     2.0928   2.0946   2.1513   2.1739   2.2126   2.2375   2.2872   2.3370
     2.3522   2.4035   2.4374   2.4891   2.5716   2.5752   2.7285   2.9160

          k = 0.3391 0.0000-0.3484 ( 50200 PWs)   bands (ev):

   -17.2743 -17.2743 -17.2730 -17.2730 -13.0929 -13.0929 -13.0915 -13.0915
   -13.0878 -13.0878 -13.0824 -13.0824 -13.0451 -13.0451 -13.0450 -13.0450
   -13.0411 -13.0411 -13.0409 -13.0409 -13.0356 -13.0356 -13.0353 -13.0353
    -8.6368  -8.6368  -8.4549  -8.4549  -8.2240  -8.2240  -8.1738  -8.1738
    -8.1420  -8.1420  -8.1059  -8.1059  -4.5302  -4.5302  -4.1545  -4.1545
    -4.1438  -4.1438  -4.1170  -4.1170  -4.0919  -4.0919  -4.0834  -4.0834
    -4.0818  -4.0818  -3.9956  -3.9956   0.3669   0.3669   0.5206   0.5206
     0.7739   0.7739   0.9198   0.9198   1.1018   1.1018   1.2750   1.2750
     1.6667   1.6667   1.7120   1.7120   1.8634   1.8634   1.9475   1.9475
     2.0423   2.0423   2.1083   2.1083   2.2976   2.2976   2.3662   2.3662
     2.3916   2.3916   2.4229   2.4229   2.5320   2.5320   2.5969   2.5969

          k = 0.3391 0.3206 0.0000 ( 50152 PWs)   bands (ev):

   -17.2742 -17.2738 -17.2734 -17.2731 -13.0997 -13.0977 -13.0923 -13.0882
   -13.0881 -13.0835 -13.0810 -13.0785 -13.0453 -13.0453 -13.0448 -13.0448
   -13.0412 -13.0411 -13.0409 -13.0408 -13.0357 -13.0355 -13.0353 -13.0352
    -8.6562  -8.5483  -8.4469  -8.2999  -8.2932  -8.2768  -8.2752  -8.2601
    -8.2049  -8.1638  -8.0543  -8.0273  -4.6246  -4.3990  -4.2164  -4.1350
    -4.1322  -4.1233  -4.1184  -4.1146  -4.1069  -4.1058  -4.0935  -4.0890
    -4.0883  -4.0623  -3.9758  -3.8269   0.0757   0.1295   0.1325   0.2741
     0.4932   0.6577   1.0051   1.2092   1.2108   1.2186   1.3143   1.6120
     1.6157   1.7003   1.8066   1.9147   1.9527   2.0004   2.0080   2.0260
     2.0474   2.1256   2.1659   2.1749   2.2175   2.2306   2.2619   2.2825
     2.2846   2.3535   2.3796   2.4334   2.6058   2.6912   2.7855   2.9779

          k = 0.3391 0.3206-0.3484 ( 50168 PWs)   bands (ev):

   -17.2740 -17.2740 -17.2733 -17.2733 -13.0948 -13.0948 -13.0918 -13.0918
   -13.0858 -13.0858 -13.0821 -13.0821 -13.0451 -13.0451 -13.0450 -13.0450
   -13.0411 -13.0411 -13.0409 -13.0409 -13.0355 -13.0355 -13.0353 -13.0353
    -8.5790  -8.5790  -8.4704  -8.4704  -8.2810  -8.2810  -8.2134  -8.2134
    -8.1141  -8.1141  -8.0947  -8.0947  -4.4132  -4.4132  -4.2184  -4.2184
    -4.1306  -4.1306  -4.1161  -4.1161  -4.1017  -4.1017  -4.0839  -4.0839
    -4.0679  -4.0679  -4.0218  -4.0218   0.1941   0.1941   0.5550   0.5550
     0.7550   0.7550   0.9012   0.9012   1.0931   1.0931   1.3024   1.3024
     1.6183   1.6183   1.7232   1.7232   1.9220   1.9220   1.9769   1.9769
     2.0876   2.0876   2.1962   2.1962   2.2534   2.2534   2.3191   2.3191
     2.3639   2.3639   2.4274   2.4274   2.5573   2.5573   2.6760   2.6760

     highest occupied level (ev):     3.4147

!    total energy              =   -8165.85729356 Ry
     estimated scf accuracy    <          9.7E-10 Ry

     The total energy is the sum of the following terms:
     one-electron contribution =    -324.86567895 Ry
     hartree contribution      =     251.15430577 Ry
     xc contribution           =    -792.77420746 Ry
     ewald contribution        =    -649.75282698 Ry
     one-center paw contrib.   =   -6649.61888594 Ry

     convergence has been achieved in   8 iterations

     Forces acting on atoms (cartesian axes, Ry/au):

     atom    1 type  1   force =    -0.00047819   -0.00094256    0.00000000
     atom    2 type  1   force =     0.00047819    0.00094256    0.00000000
     atom    3 type  1   force =    -0.00047819    0.00094256   -0.00000000
     atom    4 type  1   force =     0.00047819   -0.00094256   -0.00000000
     atom    5 type  2   force =     0.00000000    0.00000000   -0.00000000
     atom    6 type  2   force =     0.00000000    0.00000000    0.00000000
     atom    7 type  2   force =     0.00000000    0.00000000    0.00000000
     atom    8 type  2   force =     0.00000000    0.00000000    0.00000000
     atom    9 type  3   force =    -0.00135913    0.00031895   -0.00000000
     atom   10 type  3   force =     0.00135913   -0.00031895    0.00000000
     atom   11 type  3   force =    -0.00135913   -0.00031895    0.00000000
     atom   12 type  3   force =     0.00135913    0.00031895    0.00000000
     atom   13 type  3   force =    -0.00038191   -0.00092670   -0.00111113
     atom   14 type  3   force =     0.00038191    0.00092670   -0.00111113
     atom   15 type  3   force =    -0.00038191    0.00092670    0.00111113
     atom   16 type  3   force =     0.00038191   -0.00092670    0.00111113
     atom   17 type  3   force =     0.00038191    0.00092670    0.00111113
     atom   18 type  3   force =    -0.00038191   -0.00092670    0.00111113
     atom   19 type  3   force =     0.00038191   -0.00092670   -0.00111113
     atom   20 type  3   force =    -0.00038191    0.00092670   -0.00111113

     Total force =     0.005493     Total SCF correction =     0.000008


     Computing stress (Cartesian axis) and pressure

          total   stress  (Ry/bohr**3)                   (kbar)     P=        0.14
   0.00000073   0.00000000   0.00000000            0.11        0.00        0.00
   0.00000000  -0.00000277   0.00000000            0.00       -0.41        0.00
   0.00000000   0.00000000   0.00000481            0.00        0.00        0.71

     Energy error            =      1.0E-04 Ry
     Gradient error          =      1.4E-03 Ry/Bohr
     Cell gradient error     =      7.1E-01 kbar

     number of scf cycles    =  28
     number of bfgs steps    =  27

     enthalpy           old  =   -8165.8571904916 Ry
     enthalpy           new  =   -8165.8572935617 Ry

     CASE: enthalpy          _new < enthalpy          _old

     new trust radius        =       0.0281936008 bohr
     new conv_thr            =       0.0000000010 Ry

     new unit-cell volume =   6258.59576 a.u.^3 (   927.42821 Ang^3 )
     density =      5.16243 g/cm^3

CELL_PARAMETERS (angstrom)
   8.421428674   0.000000000   0.000000000
   0.000000000   8.930535441   0.000000000
   0.000000000   0.000000000  12.331531803

ATOMIC_POSITIONS (crystal)
Cs               0.4687349847        0.4197658022        0.2500000000
Cs               0.5312650153        0.5802341978        0.7500000000
Cs              -0.0312650153        0.0802341978        0.7500000000
Cs               1.0312650153        0.9197658022        0.2500000000
Pb               0.5000000000        0.0000000000       -0.0000000000
Pb               0.5000000000       -0.0000000000        0.5000000000
Pb               0.0000000000        0.5000000000       -0.0000000000
Pb              -0.0000000000        0.5000000000        0.5000000000
I                0.5889969859        0.0075313697        0.2500000000
I                0.4110030141        0.9924686303        0.7500000000
I                0.0889969859        0.4924686303        0.7500000000
I                0.9110030141        0.5075313697        0.2500000000
I                0.6878912744        0.3066500401        0.9623668236
I                0.3121087256        0.6933499599        0.4623668236
I                0.1878912744        0.1933499599        0.0376331764
I                0.8121087256        0.8066500401        0.5376331764
I                0.3121087256        0.6933499599        0.0376331764
I                0.6878912744        0.3066500401        0.5376331764
I                0.8121087256        0.8066500401        0.9623668236
I                0.1878912744        0.1933499599        0.4623668236



     Writing config-only to output data dir ./tmp/cspbi3_gamma_s1.save/ :
     XML data file
     NEW-OLD atomic charge density approx. for the potential
     New effective cutoffs (rho, wfc):  497.64   62.17

     total cpu time spent up to now is    37728.3 secs

     Self-consistent Calculation

     iteration #  1     ecut=    60.00 Ry     beta= 0.50
     Davidson diagonalization with overlap
     ethr =  1.00E-06,  avg # of iterations =  4.6

     Threshold (ethr) on eigenvalues was too large:
     Diagonalizing with lowered threshold

     Davidson diagonalization with overlap
     ethr =  5.83E-08,  avg # of iterations =  4.6

     total cpu time spent up to now is    38000.6 secs

     total energy              =   -8165.85740354 Ry
     estimated scf accuracy    <       0.00013168 Ry

     iteration #  2     ecut=    60.00 Ry     beta= 0.50
     Davidson diagonalization with overlap
     ethr =  7.48E-08,  avg # of iterations =  4.1

     total cpu time spent up to now is    38129.3 secs

     total energy              =   -8165.85747001 Ry
     estimated scf accuracy    <       0.00001470 Ry

     iteration #  3     ecut=    60.00 Ry     beta= 0.50
     Davidson diagonalization with overlap
     ethr =  8.35E-09,  avg # of iterations =  2.9

     total cpu time spent up to now is    38216.8 secs

     total energy              =   -8165.85748135 Ry
     estimated scf accuracy    <       0.00000597 Ry

     iteration #  4     ecut=    60.00 Ry     beta= 0.50
     Davidson diagonalization with overlap
     ethr =  3.39E-09,  avg # of iterations =  5.0

     total cpu time spent up to now is    38341.0 secs

     total energy              =   -8165.85748436 Ry
     estimated scf accuracy    <       0.00000565 Ry

     iteration #  5     ecut=    60.00 Ry     beta= 0.50
     Davidson diagonalization with overlap
     ethr =  3.21E-09,  avg # of iterations =  1.4

     total cpu time spent up to now is    38423.6 secs

     total energy              =   -8165.85748545 Ry
     estimated scf accuracy    <       0.00001170 Ry

     iteration #  6     ecut=    60.00 Ry     beta= 0.50
     Davidson diagonalization with overlap
     ethr =  3.21E-09,  avg # of iterations =  3.0

     total cpu time spent up to now is    38524.2 secs

     total energy              =   -8165.85748608 Ry
     estimated scf accuracy    <       0.00000016 Ry

     iteration #  7     ecut=    60.00 Ry     beta= 0.50
     Davidson diagonalization with overlap
     ethr =  9.37E-11,  avg # of iterations =  4.5

     total cpu time spent up to now is    38657.3 secs

     total energy              =   -8165.85748610 Ry
     estimated scf accuracy    <       0.00000006 Ry

     iteration #  8     ecut=    60.00 Ry     beta= 0.50
     Davidson diagonalization with overlap
     ethr =  3.67E-11,  avg # of iterations =  3.6

     total cpu time spent up to now is    38761.0 secs

     total energy              =   -8165.85748613 Ry
     estimated scf accuracy    <          7.8E-09 Ry

     iteration #  9     ecut=    60.00 Ry     beta= 0.50
     Davidson diagonalization with overlap
     ethr =  4.42E-12,  avg # of iterations =  4.6

     total cpu time spent up to now is    38872.4 secs

     total energy              =   -8165.85748613 Ry
     estimated scf accuracy    <          1.9E-09 Ry

     iteration # 10     ecut=    60.00 Ry     beta= 0.50
     Davidson diagonalization with overlap
     ethr =  1.07E-12,  avg # of iterations =  4.2

     total cpu time spent up to now is    38983.3 secs

     End of self-consistent calculation

          k = 0.0000 0.0000 0.0000 ( 50101 PWs)   bands (ev):

   -17.2967 -17.2959 -17.2945 -17.2940 -13.1270 -13.1247 -13.1244 -13.1201
   -13.1131 -13.1061 -13.1044 -13.1043 -13.0731 -13.0730 -13.0726 -13.0724
   -13.0692 -13.0690 -13.0687 -13.0685 -13.0636 -13.0633 -13.0629 -13.0626
    -8.7964  -8.6094  -8.3401  -8.3067  -8.3064  -8.2829  -8.2733  -8.2532
    -8.2507  -8.0775  -8.0678  -8.0654  -4.9986  -4.4964  -4.1680  -4.1620
    -4.1559  -4.1531  -4.1515  -4.1479  -4.1449  -4.1372  -4.1282  -4.1078
    -4.0938  -4.0874  -3.9445  -3.5018  -0.0339   0.0128   0.0357   0.1250
     0.1735   0.3037   1.0793   1.3774   1.3780   1.4022   1.4327   1.4597
     1.7051   1.8615   1.8899   1.9391   1.9813   2.0103   2.0134   2.0300
     2.0660   2.0787   2.0828   2.0863   2.1109   2.3135   2.3718   2.3954
     2.4039   2.4213   2.4268   2.4811   2.6620   2.6699   2.9376   3.3803

          k = 0.0000 0.0000-0.3478 ( 50118 PWs)   bands (ev):

   -17.2963 -17.2963 -17.2943 -17.2943 -13.1245 -13.1245 -13.1201 -13.1201
   -13.1132 -13.1132 -13.1043 -13.1043 -13.0728 -13.0728 -13.0727 -13.0727
   -13.0691 -13.0691 -13.0686 -13.0686 -13.0634 -13.0634 -13.0627 -13.0627
    -8.7231  -8.7231  -8.3092  -8.3092  -8.2940  -8.2940  -8.2614  -8.2614
    -8.1560  -8.1560  -8.0720  -8.0720  -4.7577  -4.7577  -4.1668  -4.1668
    -4.1620  -4.1620  -4.1435  -4.1435  -4.1135  -4.1135  -4.1099  -4.1099
    -4.1022  -4.1022  -3.7830  -3.7830   0.0593   0.0593   0.0995   0.0995
     0.7388   0.7388   0.9853   0.9853   1.2332   1.2332   1.4718   1.4718
     1.5804   1.5804   1.8530   1.8530   1.9624   1.9624   2.0365   2.0365
     2.1121   2.1121   2.1153   2.1153   2.2670   2.2670   2.3216   2.3216
     2.3555   2.3555   2.4105   2.4105   2.5992   2.5992   3.0198   3.0198

          k = 0.0000 0.3201 0.0000 ( 50121 PWs)   bands (ev):

   -17.2961 -17.2955 -17.2950 -17.2945 -13.1254 -13.1225 -13.1195 -13.1190
   -13.1118 -13.1094 -13.1089 -13.1078 -13.0731 -13.0730 -13.0726 -13.0725
   -13.0691 -13.0689 -13.0689 -13.0687 -13.0634 -13.0631 -13.0631 -13.0628
    -8.7282  -8.5466  -8.5377  -8.3761  -8.2919  -8.2799  -8.2187  -8.2054
    -8.1542  -8.1270  -8.1136  -8.0808  -4.7794  -4.3425  -4.3294  -4.1758
    -4.1615  -4.1493  -4.1476  -4.1364  -4.1200  -4.1177  -4.1168  -4.1135
    -4.1120  -4.0613  -4.0496  -3.7694   0.0502   0.1525   0.3168   0.4729
     0.4968   0.5490   1.0668   1.1189   1.2622   1.2778   1.3173   1.3370
     1.5065   1.5864   1.6904   1.7694   1.8885   1.9662   1.9812   2.0189
     2.0320   2.0524   2.1495   2.1592   2.1761   2.2881   2.2929   2.2977
     2.3386   2.3610   2.4123   2.4884   2.6121   2.6814   2.7443   2.9721

          k = 0.0000 0.3201-0.3478 ( 50184 PWs)   bands (ev):

   -17.2958 -17.2958 -17.2948 -17.2948 -13.1197 -13.1197 -13.1184 -13.1184
   -13.1147 -13.1147 -13.1093 -13.1093 -13.0728 -13.0728 -13.0728 -13.0728
   -13.0690 -13.0690 -13.0688 -13.0688 -13.0633 -13.0633 -13.0629 -13.0629
    -8.6550  -8.6550  -8.4842  -8.4842  -8.2172  -8.2172  -8.1948  -8.1948
    -8.1589  -8.1589  -8.1199  -8.1199  -4.5568  -4.5568  -4.1861  -4.1861
    -4.1554  -4.1554  -4.1528  -4.1528  -4.1316  -4.1316  -4.1148  -4.1148
    -4.0938  -4.0938  -3.9960  -3.9960   0.3886   0.3886   0.4559   0.4559
     0.8272   0.8272   0.8674   0.8674   1.1544   1.1544   1.2090   1.2090
     1.5655   1.5655   1.7158   1.7158   1.8441   1.8441   1.8567   1.8567
     1.9598   1.9598   2.0210   2.0210   2.3285   2.3285   2.3300   2.3300
     2.4161   2.4161   2.4184   2.4184   2.6415   2.6415   2.6830   2.6830

          k = 0.3395 0.0000 0.0000 ( 50214 PWs)   bands (ev):

   -17.2962 -17.2957 -17.2948 -17.2944 -13.1254 -13.1225 -13.1195 -13.1190
   -13.1118 -13.1094 -13.1089 -13.1078 -13.0731 -13.0730 -13.0726 -13.0725
   -13.0691 -13.0689 -13.0689 -13.0687 -13.0634 -13.0631 -13.0631 -13.0628
    -8.7232  -8.5331  -8.5306  -8.3531  -8.2896  -8.2828  -8.2500  -8.2301
    -8.1559  -8.1246  -8.1223  -8.0795  -4.7753  -4.3227  -4.3165  -4.1660
    -4.1582  -4.1457  -4.1447  -4.1432  -4.1351  -4.1130  -4.1117  -4.1080
    -4.1011  -4.0669  -4.0538  -3.7785   0.0516   0.1649   0.2834   0.4397
     0.4851   0.6444   0.9554   1.1667   1.2501   1.2667   1.3221   1.4628
     1.4822   1.6062   1.7334   1.7440   1.9361   1.9688   2.0088   2.0187
     2.0776   2.0780   2.1340   2.1537   2.1893   2.2194   2.2653   2.3174
     2.3275   2.3813   2.4127   2.4682   2.5487   2.5518   2.6974   2.8840

          k = 0.3395 0.0000-0.3478 ( 50200 PWs)   bands (ev):

   -17.2959 -17.2959 -17.2946 -17.2946 -13.1197 -13.1197 -13.1184 -13.1184
   -13.1147 -13.1147 -13.1093 -13.1093 -13.0728 -13.0728 -13.0727 -13.0727
   -13.0690 -13.0690 -13.0688 -13.0688 -13.0633 -13.0633 -13.0629 -13.0629
    -8.6500  -8.6500  -8.4690  -8.4690  -8.2429  -8.2429  -8.1904  -8.1904
    -8.1599  -8.1599  -8.1252  -8.1252  -4.5495  -4.5495  -4.1750  -4.1750
    -4.1648  -4.1648  -4.1380  -4.1380  -4.1131  -4.1131  -4.1046  -4.1046
    -4.1030  -4.1030  -4.0182  -4.0182   0.3523   0.3523   0.5077   0.5077
     0.7605   0.7605   0.9040   0.9040   1.0853   1.0853   1.2592   1.2592
     1.6508   1.6508   1.6967   1.6967   1.8505   1.8505   1.9304   1.9304
     2.0165   2.0165   2.0878   2.0878   2.2790   2.2790   2.3431   2.3431
     2.3693   2.3693   2.4035   2.4035   2.5084   2.5084   2.5704   2.5704

          k = 0.3395 0.3201 0.0000 ( 50152 PWs)   bands (ev):

   -17.2959 -17.2955 -17.2950 -17.2947 -13.1264 -13.1244 -13.1192 -13.1151
   -13.1150 -13.1105 -13.1081 -13.1056 -13.0730 -13.0730 -13.0725 -13.0725
   -13.0690 -13.0689 -13.0688 -13.0687 -13.0633 -13.0632 -13.0630 -13.0629
    -8.6689  -8.5614  -8.4633  -8.3178  -8.3089  -8.2941  -8.2899  -8.2761
    -8.2232  -8.1824  -8.0734  -8.0467  -4.6421  -4.4182  -4.2379  -4.1554
    -4.1532  -4.1441  -4.1397  -4.1354  -4.1281  -4.1268  -4.1146  -4.1100
    -4.1095  -4.0840  -4.0001  -3.8538   0.0687   0.1166   0.1264   0.2594
     0.4780   0.6416   0.9891   1.1921   1.1956   1.2045   1.2980   1.5937
     1.5960   1.6814   1.7903   1.8969   1.9375   1.9840   1.9920   2.0061
     2.0314   2.1034   2.1456   2.1576   2.1979   2.2124   2.2397   2.2634
     2.2635   2.3328   2.3582   2.4113   2.5824   2.6676   2.7558   2.9472

          k = 0.3395 0.3201-0.3478 ( 50168 PWs)   bands (ev):

   -17.2956 -17.2956 -17.2949 -17.2949 -13.1216 -13.1216 -13.1187 -13.1187
   -13.1127 -13.1127 -13.1091 -13.1091 -13.0728 -13.0728 -13.0728 -13.0728
   -13.0689 -13.0689 -13.0688 -13.0688 -13.0632 -13.0632 -13.0630 -13.0630
    -8.5926  -8.5926  -8.4844  -8.4844  -8.2987  -8.2987  -8.2310  -8.2310
    -8.1323  -8.1323  -8.1133  -8.1133  -4.4332  -4.4332  -4.2392  -4.2392
    -4.1514  -4.1514  -4.1373  -4.1373  -4.1232  -4.1232  -4.1050  -4.1050
    -4.0895  -4.0895  -4.0443  -4.0443   0.1806   0.1806   0.5389   0.5389
     0.7436   0.7436   0.8877   0.8877   1.0773   1.0773   1.2877   1.2877
     1.6025   1.6025   1.7042   1.7042   1.9015   1.9015   1.9609   1.9609
     2.0676   2.0676   2.1767   2.1767   2.2350   2.2350   2.2997   2.2997
     2.3403   2.3403   2.4060   2.4060   2.5342   2.5342   2.6497   2.6497

     highest occupied level (ev):     3.3803

!    total energy              =   -8165.85748613 Ry
     estimated scf accuracy    <          8.5E-11 Ry

     The total energy is the sum of the following terms:
     one-electron contribution =    -325.52081187 Ry
     hartree contribution      =     251.33493768 Ry
     xc contribution           =    -792.75614919 Ry
     ewald contribution        =    -649.29743039 Ry
     one-center paw contrib.   =   -6649.61803236 Ry

     convergence has been achieved in  10 iterations

     Forces acting on atoms (cartesian axes, Ry/au):

     atom    1 type  1   force =    -0.00033762   -0.00098205    0.00000000
     atom    2 type  1   force =     0.00033762    0.00098205    0.00000000
     atom    3 type  1   force =    -0.00033762    0.00098205    0.00000000
     atom    4 type  1   force =     0.00033762   -0.00098205    0.00000000
     atom    5 type  2   force =     0.00000000    0.00000000   -0.00000000
     atom    6 type  2   force =    -0.00000000    0.00000000    0.00000000
     atom    7 type  2   force =     0.00000000    0.00000000    0.00000000
     atom    8 type  2   force =     0.00000000   -0.00000000    0.00000000
     atom    9 type  3   force =    -0.00141246    0.00037098    0.00000000
     atom   10 type  3   force =     0.00141246   -0.00037098    0.00000000
     atom   11 type  3   force =    -0.00141246   -0.00037098    0.00000000
     atom   12 type  3   force =     0.00141246    0.00037098    0.00000000
     atom   13 type  3   force =    -0.00034159   -0.00097312   -0.00084199
     atom   14 type  3   force =     0.00034159    0.00097312   -0.00084199
     atom   15 type  3   force =    -0.00034159    0.00097312    0.00084199
     atom   16 type  3   force =     0.00034159   -0.00097312    0.00084199
     atom   17 type  3   force =     0.00034159    0.00097312    0.00084199
     atom   18 type  3   force =    -0.00034159   -0.00097312    0.00084199
     atom   19 type  3   force =     0.00034159   -0.00097312   -0.00084199
     atom   20 type  3   force =    -0.00034159    0.00097312   -0.00084199

     Total force =     0.005199     Total SCF correction =     0.000006


     Computing stress (Cartesian axis) and pressure

          total   stress  (Ry/bohr**3)                   (kbar)     P=       -0.40
  -0.00000171   0.00000000   0.00000000           -0.25        0.00        0.00
   0.00000000  -0.00000595   0.00000000            0.00       -0.87        0.00
   0.00000000   0.00000000  -0.00000051            0.00        0.00       -0.08

     Energy error            =      1.9E-04 Ry
     Gradient error          =      1.4E-03 Ry/Bohr
     Cell gradient error     =      8.7E-01 kbar

     number of scf cycles    =  29
     number of bfgs steps    =  28

     enthalpy           old  =   -8165.8572935617 Ry
     enthalpy           new  =   -8165.8574861311 Ry

     CASE: enthalpy          _new < enthalpy          _old

     new trust radius        =       0.0414919334 bohr
     new conv_thr            =       0.0000000014 Ry

     new unit-cell volume =   6269.89416 a.u.^3 (   929.10246 Ang^3 )
     density =      5.15312 g/cm^3

CELL_PARAMETERS (angstrom)
   8.406920093   0.000000000   0.000000000
   0.000000000   8.938656911   0.000000000
   0.000000000   0.000000000  12.363869736

ATOMIC_POSITIONS (crystal)
Cs               0.4676623678        0.4186963044        0.2500000000
Cs               0.5323376322        0.5813036956        0.7500000000
Cs              -0.0323376322        0.0813036956        0.7500000000
Cs               1.0323376322        0.9186963044        0.2500000000
Pb               0.5000000000        0.0000000000       -0.0000000000
Pb               0.5000000000       -0.0000000000        0.5000000000
Pb               0.0000000000        0.5000000000       -0.0000000000
Pb              -0.0000000000        0.5000000000        0.5000000000
I                0.5887624183        0.0074404170        0.2500000000
I                0.4112375817        0.9925595830        0.7500000000
I                0.0887624183        0.4925595830        0.7500000000
I                0.9112375817        0.5074404170        0.2500000000
I                0.6876527364        0.3062435887        0.9613600588
I                0.3123472636        0.6937564113        0.4613600588
I                0.1876527364        0.1937564113        0.0386399412
I                0.8123472636        0.8062435887        0.5386399412
I                0.3123472636        0.6937564113        0.0386399412
I                0.6876527364        0.3062435887        0.5386399412
I                0.8123472636        0.8062435887        0.9613600588
I                0.1876527364        0.1937564113        0.4613600588



     Writing config-only to output data dir ./tmp/cspbi3_gamma_s1.save/ :
     XML data file
     NEW-OLD atomic charge density approx. for the potential
     New effective cutoffs (rho, wfc):  499.28   62.37

     total cpu time spent up to now is    39115.2 secs

     Self-consistent Calculation

     iteration #  1     ecut=    60.00 Ry     beta= 0.50
     Davidson diagonalization with overlap
     ethr =  1.00E-06,  avg # of iterations =  4.9

     Threshold (ethr) on eigenvalues was too large:
     Diagonalizing with lowered threshold

     Davidson diagonalization with overlap
     ethr =  5.02E-08,  avg # of iterations =  5.1

     total cpu time spent up to now is    39436.0 secs

     total energy              =   -8165.85760225 Ry
     estimated scf accuracy    <       0.00012691 Ry

     iteration #  2     ecut=    60.00 Ry     beta= 0.50
     Davidson diagonalization with overlap
     ethr =  7.21E-08,  avg # of iterations =  4.1

     total cpu time spent up to now is    39570.3 secs

     total energy              =   -8165.85767681 Ry
     estimated scf accuracy    <       0.00001109 Ry

     iteration #  3     ecut=    60.00 Ry     beta= 0.50
     Davidson diagonalization with overlap
     ethr =  6.30E-09,  avg # of iterations =  5.0

     total cpu time spent up to now is    39683.6 secs

     total energy              =   -8165.85769069 Ry
     estimated scf accuracy    <       0.00000866 Ry

     iteration #  4     ecut=    60.00 Ry     beta= 0.50
     Davidson diagonalization with overlap
     ethr =  4.92E-09,  avg # of iterations =  1.5

     total cpu time spent up to now is    39768.0 secs

     total energy              =   -8165.85769539 Ry
     estimated scf accuracy    <       0.00000315 Ry

     iteration #  5     ecut=    60.00 Ry     beta= 0.50
     Davidson diagonalization with overlap
     ethr =  1.79E-09,  avg # of iterations =  4.9

     total cpu time spent up to now is    39877.2 secs

     total energy              =   -8165.85769664 Ry
     estimated scf accuracy    <       0.00000034 Ry

     iteration #  6     ecut=    60.00 Ry     beta= 0.50
     Davidson diagonalization with overlap
     ethr =  1.94E-10,  avg # of iterations =  4.2

     total cpu time spent up to now is    39980.3 secs

     total energy              =   -8165.85769682 Ry
     estimated scf accuracy    <       0.00000001 Ry

     iteration #  7     ecut=    60.00 Ry     beta= 0.50
     Davidson diagonalization with overlap
     ethr =  7.40E-12,  avg # of iterations =  5.8

     total cpu time spent up to now is    40131.0 secs

     total energy              =   -8165.85769687 Ry
     estimated scf accuracy    <          2.9E-09 Ry

     iteration #  8     ecut=    60.00 Ry     beta= 0.50
     Davidson diagonalization with overlap
     ethr =  1.66E-12,  avg # of iterations =  2.6

     total cpu time spent up to now is    40227.0 secs

     End of self-consistent calculation

          k = 0.0000 0.0000 0.0000 ( 50101 PWs)   bands (ev):

   -17.3124 -17.3117 -17.3102 -17.3098 -13.1485 -13.1466 -13.1462 -13.1416
   -13.1352 -13.1282 -13.1262 -13.1261 -13.0955 -13.0953 -13.0950 -13.0948
   -13.0919 -13.0918 -13.0914 -13.0912 -13.0861 -13.0858 -13.0854 -13.0851
    -8.8056  -8.6240  -8.3467  -8.3231  -8.3118  -8.2995  -8.2813  -8.2704
    -8.2661  -8.0944  -8.0833  -8.0799  -5.0100  -4.5178  -4.1826  -4.1767
    -4.1711  -4.1700  -4.1675  -4.1611  -4.1595  -4.1533  -4.1435  -4.1233
    -4.1101  -4.1037  -3.9606  -3.5263  -0.0363   0.0002   0.0239   0.1288
     0.1629   0.2874   1.0675   1.3615   1.3636   1.3937   1.4199   1.4534
     1.6967   1.8541   1.8783   1.9139   1.9713   1.9897   1.9990   2.0130
     2.0407   2.0564   2.0671   2.0675   2.1072   2.3052   2.3464   2.3770
     2.3925   2.4046   2.4143   2.4591   2.6360   2.6518   2.9156   3.3521

          k = 0.0000 0.0000-0.3468 ( 50118 PWs)   bands (ev):

   -17.3120 -17.3120 -17.3100 -17.3100 -13.1463 -13.1463 -13.1419 -13.1419
   -13.1350 -13.1350 -13.1262 -13.1262 -13.0953 -13.0953 -13.0950 -13.0950
   -13.0918 -13.0918 -13.0913 -13.0913 -13.0860 -13.0860 -13.0853 -13.0853
    -8.7338  -8.7338  -8.3171  -8.3171  -8.3100  -8.3100  -8.2759  -8.2759
    -8.1690  -8.1690  -8.0882  -8.0882  -4.7738  -4.7738  -4.1814  -4.1814
    -4.1779  -4.1779  -4.1594  -4.1594  -4.1291  -4.1291  -4.1253  -4.1253
    -4.1177  -4.1177  -3.8010  -3.8010   0.0464   0.0464   0.0879   0.0879
     0.7312   0.7312   0.9780   0.9780   1.2200   1.2200   1.4662   1.4662
     1.5683   1.5683   1.8321   1.8321   1.9398   1.9398   2.0200   2.0200
     2.0946   2.0946   2.0993   2.0993   2.2534   2.2534   2.3074   2.3074
     2.3418   2.3418   2.3935   2.3935   2.5836   2.5836   2.9946   2.9946

          k = 0.0000 0.3198 0.0000 ( 50121 PWs)   bands (ev):

   -17.3118 -17.3112 -17.3107 -17.3102 -13.1469 -13.1441 -13.1413 -13.1407
   -13.1339 -13.1312 -13.1307 -13.1298 -13.0955 -13.0954 -13.0949 -13.0948
   -13.0918 -13.0916 -13.0915 -13.0914 -13.0859 -13.0856 -13.0856 -13.0853
    -8.7377  -8.5568  -8.5527  -8.3921  -8.2982  -8.2874  -8.2355  -8.2209
    -8.1676  -8.1434  -8.1291  -8.0950  -4.7913  -4.3553  -4.3488  -4.1900
    -4.1772  -4.1645  -4.1638  -4.1523  -4.1360  -4.1322  -4.1322  -4.1296
    -4.1279  -4.0782  -4.0676  -3.7933   0.0515   0.1583   0.3044   0.4598
     0.4770   0.5343   1.0513   1.1064   1.2429   1.2656   1.3038   1.3196
     1.4952   1.5777   1.6757   1.7598   1.8765   1.9574   1.9713   2.0007
     2.0237   2.0390   2.1311   2.1393   2.1559   2.2675   2.2783   2.2836
     2.3273   2.3391   2.3996   2.4705   2.5911   2.6633   2.7216   2.9503

          k = 0.0000 0.3198-0.3468 ( 50184 PWs)   bands (ev):

   -17.3115 -17.3115 -17.3105 -17.3105 -13.1416 -13.1416 -13.1402 -13.1402
   -13.1364 -13.1364 -13.1311 -13.1311 -13.0952 -13.0952 -13.0951 -13.0951
   -13.0917 -13.0917 -13.0914 -13.0914 -13.0858 -13.0858 -13.0855 -13.0855
    -8.6660  -8.6660  -8.4955  -8.4955  -8.2316  -8.2316  -8.2069  -8.2069
    -8.1721  -8.1721  -8.1360  -8.1360  -4.5729  -4.5729  -4.2003  -4.2003
    -4.1709  -4.1709  -4.1690  -4.1690  -4.1475  -4.1475  -4.1305  -4.1305
    -4.1098  -4.1098  -4.0134  -4.0134   0.3762   0.3762   0.4438   0.4438
     0.8180   0.8180   0.8596   0.8596   1.1385   1.1385   1.1964   1.1964
     1.5535   1.5535   1.7048   1.7048   1.8206   1.8206   1.8371   1.8371
     1.9540   1.9540   2.0063   2.0063   2.3152   2.3152   2.3183   2.3183
     2.3985   2.3985   2.3991   2.3991   2.6241   2.6241   2.6622   2.6622

          k = 0.3401 0.0000 0.0000 ( 50214 PWs)   bands (ev):

   -17.3119 -17.3115 -17.3104 -17.3101 -13.1469 -13.1441 -13.1414 -13.1407
   -13.1339 -13.1312 -13.1307 -13.1298 -13.0955 -13.0954 -13.0949 -13.0948
   -13.0918 -13.0916 -13.0915 -13.0914 -13.0860 -13.0856 -13.0856 -13.0853
    -8.7323  -8.5454  -8.5419  -8.3682  -8.2974  -8.2910  -8.2663  -8.2465
    -8.1700  -8.1409  -8.1381  -8.0938  -4.7873  -4.3366  -4.3354  -4.1812
    -4.1742  -4.1609  -4.1608  -4.1584  -4.1500  -4.1285  -4.1272  -4.1231
    -4.1163  -4.0851  -4.0698  -3.8019   0.0525   0.1684   0.2706   0.4255
     0.4716   0.6266   0.9429   1.1532   1.2347   1.2527   1.3079   1.4466
     1.4751   1.5940   1.7277   1.7287   1.9238   1.9549   1.9973   2.0047
     2.0661   2.0676   2.1222   2.1371   2.1691   2.2060   2.2474   2.3019
     2.3052   2.3628   2.3928   2.4526   2.5309   2.5343   2.6678   2.8559

          k = 0.3401 0.0000-0.3468 ( 50200 PWs)   bands (ev):

   -17.3117 -17.3117 -17.3103 -17.3103 -13.1416 -13.1416 -13.1402 -13.1402
   -13.1364 -13.1364 -13.1311 -13.1311 -13.0952 -13.0952 -13.0951 -13.0951
   -13.0917 -13.0917 -13.0914 -13.0914 -13.0858 -13.0858 -13.0855 -13.0855
    -8.6604  -8.6604  -8.4793  -8.4793  -8.2592  -8.2592  -8.2022  -8.2022
    -8.1731  -8.1731  -8.1415  -8.1415  -4.5657  -4.5657  -4.1897  -4.1897
    -4.1806  -4.1806  -4.1536  -4.1536  -4.1289  -4.1289  -4.1203  -4.1203
    -4.1183  -4.1183  -4.0353  -4.0353   0.3391   0.3391   0.4965   0.4965
     0.7524   0.7524   0.8925   0.8925   1.0739   1.0739   1.2469   1.2469
     1.6380   1.6380   1.6858   1.6858   1.8447   1.8447   1.9171   1.9171
     1.9908   1.9908   2.0708   2.0708   2.2646   2.2646   2.3232   2.3232
     2.3515   2.3515   2.3897   2.3897   2.4899   2.4899   2.5490   2.5490

          k = 0.3401 0.3198 0.0000 ( 50152 PWs)   bands (ev):

   -17.3116 -17.3112 -17.3107 -17.3104 -13.1480 -13.1460 -13.1411 -13.1371
   -13.1367 -13.1323 -13.1301 -13.1276 -13.0954 -13.0954 -13.0949 -13.0948
   -13.0917 -13.0916 -13.0916 -13.0914 -13.0859 -13.0857 -13.0856 -13.0854
    -8.6780  -8.5701  -8.4784  -8.3337  -8.3218  -8.3094  -8.2984  -8.2863
    -8.2385  -8.1980  -8.0882  -8.0619  -4.6546  -4.4312  -4.2557  -4.1705
    -4.1687  -4.1596  -4.1556  -4.1506  -4.1439  -4.1420  -4.1301  -4.1252
    -4.1250  -4.1002  -4.0203  -3.8773   0.0693   0.1045   0.1280   0.2454
     0.4648   0.6264   0.9768   1.1756   1.1864   1.1945   1.2851   1.5781
     1.5783   1.6661   1.7783   1.8837   1.9277   1.9717   1.9823   1.9892
     2.0207   2.0834   2.1303   2.1446   2.1814   2.1985   2.2204   2.2455
     2.2504   2.3168   2.3417   2.3951   2.5639   2.6494   2.7289   2.9210

          k = 0.3401 0.3198-0.3468 ( 50168 PWs)   bands (ev):

   -17.3113 -17.3113 -17.3106 -17.3106 -13.1434 -13.1434 -13.1406 -13.1406
   -13.1345 -13.1345 -13.1309 -13.1309 -13.0952 -13.0952 -13.0951 -13.0951
   -13.0916 -13.0916 -13.0915 -13.0915 -13.0857 -13.0857 -13.0855 -13.0855
    -8.6031  -8.6031  -8.4943  -8.4943  -8.3143  -8.3143  -8.2450  -8.2450
    -8.1463  -8.1463  -8.1277  -8.1277  -4.4494  -4.4494  -4.2547  -4.2547
    -4.1665  -4.1665  -4.1531  -4.1531  -4.1392  -4.1392  -4.1204  -4.1204
    -4.1053  -4.1053  -4.0611  -4.0611   0.1672   0.1672   0.5239   0.5239
     0.7384   0.7384   0.8797   0.8797   1.0653   1.0653   1.2771   1.2771
     1.5902   1.5902   1.6874   1.6874   1.8835   1.8835   1.9508   1.9508
     2.0518   2.0518   2.1612   2.1612   2.2215   2.2215   2.2845   2.2845
     2.3196   2.3196   2.3899   2.3899   2.5158   2.5158   2.6291   2.6291

     highest occupied level (ev):     3.3521

!    total energy              =   -8165.85769688 Ry
     estimated scf accuracy    <          2.5E-10 Ry

     The total energy is the sum of the following terms:
     one-electron contribution =    -326.07261570 Ry
     hartree contribution      =     251.49535605 Ry
     xc contribution           =    -792.74172651 Ry
     ewald contribution        =    -648.92150034 Ry
     one-center paw contrib.   =   -6649.61721038 Ry

     convergence has been achieved in   8 iterations

     Forces acting on atoms (cartesian axes, Ry/au):

     atom    1 type  1   force =    -0.00014168   -0.00080198    0.00000000
     atom    2 type  1   force =     0.00014168    0.00080198    0.00000000
     atom    3 type  1   force =    -0.00014168    0.00080198    0.00000000
     atom    4 type  1   force =     0.00014168   -0.00080198    0.00000000
     atom    5 type  2   force =    -0.00000000    0.00000000   -0.00000000
     atom    6 type  2   force =     0.00000000    0.00000000    0.00000000
     atom    7 type  2   force =     0.00000000   -0.00000000    0.00000000
     atom    8 type  2   force =     0.00000000    0.00000000    0.00000000
     atom    9 type  3   force =    -0.00138381    0.00029356    0.00000000
     atom   10 type  3   force =     0.00138381   -0.00029356    0.00000000
     atom   11 type  3   force =    -0.00138381   -0.00029356    0.00000000
     atom   12 type  3   force =     0.00138381    0.00029356    0.00000000
     atom   13 type  3   force =    -0.00012110   -0.00063730   -0.00052782
     atom   14 type  3   force =     0.00012110    0.00063730   -0.00052782
     atom   15 type  3   force =    -0.00012110    0.00063730    0.00052782
     atom   16 type  3   force =     0.00012110   -0.00063730    0.00052782
     atom   17 type  3   force =     0.00012110    0.00063730    0.00052782
     atom   18 type  3   force =    -0.00012110   -0.00063730    0.00052782
     atom   19 type  3   force =     0.00012110   -0.00063730   -0.00052782
     atom   20 type  3   force =    -0.00012110    0.00063730   -0.00052782

     Total force =     0.004031     Total SCF correction =     0.000024


     Computing stress (Cartesian axis) and pressure

          total   stress  (Ry/bohr**3)                   (kbar)     P=       -0.83
  -0.00000354   0.00000000   0.00000000           -0.52        0.00        0.00
   0.00000000  -0.00000630   0.00000000            0.00       -0.93        0.00
   0.00000000   0.00000000  -0.00000714            0.00        0.00       -1.05

     Energy error            =      2.1E-04 Ry
     Gradient error          =      1.4E-03 Ry/Bohr
     Cell gradient error     =      1.1E+00 kbar

     number of scf cycles    =  30
     number of bfgs steps    =  29

     enthalpy           old  =   -8165.8574861311 Ry
     enthalpy           new  =   -8165.8576968791 Ry

     CASE: enthalpy          _new < enthalpy          _old

     new trust radius        =       0.0213927993 bohr
     new conv_thr            =       0.0000000014 Ry

     new unit-cell volume =   6267.31436 a.u.^3 (   928.72017 Ang^3 )
     density =      5.15524 g/cm^3

CELL_PARAMETERS (angstrom)
   8.396771324   0.000000000   0.000000000
   0.000000000   8.933710191   0.000000000
   0.000000000   0.000000000  12.380571484

ATOMIC_POSITIONS (crystal)
Cs               0.4671211961        0.4180296465        0.2500000000
Cs               0.5328788039        0.5819703535        0.7500000000
Cs              -0.0328788039        0.0819703535        0.7500000000
Cs               1.0328788039        0.9180296465        0.2500000000
Pb               0.5000000000        0.0000000000       -0.0000000000
Pb               0.5000000000       -0.0000000000        0.5000000000
Pb               0.0000000000        0.5000000000       -0.0000000000
Pb              -0.0000000000        0.5000000000        0.5000000000
I                0.5884147339        0.0074822022        0.2500000000
I                0.4115852661        0.9925177978        0.7500000000
I                0.0884147339        0.4925177978        0.7500000000
I                0.9115852661        0.5074822022        0.2500000000
I                0.6875214663        0.3058299275        0.9608378806
I                0.3124785337        0.6941700725        0.4608378806
I                0.1875214663        0.1941700725        0.0391621194
I                0.8124785337        0.8058299275        0.5391621194
I                0.3124785337        0.6941700725        0.0391621194
I                0.6875214663        0.3058299275        0.5391621194
I                0.8124785337        0.8058299275        0.9608378806
I                0.1875214663        0.1941700725        0.4608378806



     Writing config-only to output data dir ./tmp/cspbi3_gamma_s1.save/ :
     XML data file
     NEW-OLD atomic charge density approx. for the potential
     New effective cutoffs (rho, wfc):  500.44   62.51

     total cpu time spent up to now is    40359.7 secs

     Self-consistent Calculation

     iteration #  1     ecut=    60.00 Ry     beta= 0.50
     Davidson diagonalization with overlap
     ethr =  1.00E-06,  avg # of iterations =  4.0

     Threshold (ethr) on eigenvalues was too large:
     Diagonalizing with lowered threshold

     Davidson diagonalization with overlap
     ethr =  6.35E-09,  avg # of iterations =  8.0

     total cpu time spent up to now is    40736.9 secs

     total energy              =   -8165.85777795 Ry
     estimated scf accuracy    <       0.00002503 Ry

     iteration #  2     ecut=    60.00 Ry     beta= 0.50
     Davidson diagonalization with overlap
     ethr =  1.42E-08,  avg # of iterations =  2.0

     total cpu time spent up to now is    40846.2 secs

     total energy              =   -8165.85779441 Ry
     estimated scf accuracy    <       0.00000246 Ry

     iteration #  3     ecut=    60.00 Ry     beta= 0.50
     Davidson diagonalization with overlap
     ethr =  1.40E-09,  avg # of iterations =  5.6

     total cpu time spent up to now is    40992.1 secs

     total energy              =   -8165.85779877 Ry
     estimated scf accuracy    <       0.00000192 Ry

     iteration #  4     ecut=    60.00 Ry     beta= 0.50
     Davidson diagonalization with overlap
     ethr =  1.09E-09,  avg # of iterations =  1.0

     total cpu time spent up to now is    41076.5 secs

     total energy              =   -8165.85779956 Ry
     estimated scf accuracy    <       0.00000087 Ry

     iteration #  5     ecut=    60.00 Ry     beta= 0.50
     Davidson diagonalization with overlap
     ethr =  4.94E-10,  avg # of iterations =  4.0

     total cpu time spent up to now is    41180.8 secs

     total energy              =   -8165.85779981 Ry
     estimated scf accuracy    <       0.00000002 Ry

     iteration #  6     ecut=    60.00 Ry     beta= 0.50
     Davidson diagonalization with overlap
     ethr =  9.30E-12,  avg # of iterations =  6.0

     total cpu time spent up to now is    41352.6 secs

     total energy              =   -8165.85779987 Ry
     estimated scf accuracy    <          2.8E-09 Ry

     iteration #  7     ecut=    60.00 Ry     beta= 0.50
     Davidson diagonalization with overlap
     ethr =  1.59E-12,  avg # of iterations =  4.1

     total cpu time spent up to now is    41473.3 secs

     End of self-consistent calculation

          k = 0.0000 0.0000 0.0000 ( 50101 PWs)   bands (ev):

   -17.3076 -17.3069 -17.3053 -17.3049 -13.1453 -13.1436 -13.1432 -13.1382
   -13.1322 -13.1251 -13.1230 -13.1229 -13.0921 -13.0919 -13.0916 -13.0913
   -13.0888 -13.0887 -13.0883 -13.0881 -13.0830 -13.0827 -13.0822 -13.0820
    -8.8036  -8.6250  -8.3398  -8.3229  -8.3046  -8.2995  -8.2751  -8.2704
    -8.2657  -8.0929  -8.0808  -8.0766  -5.0078  -4.5195  -4.1776  -4.1723
    -4.1667  -4.1665  -4.1634  -4.1549  -4.1548  -4.1491  -4.1389  -4.1188
    -4.1059  -4.0996  -3.9544  -3.5234  -0.0296  -0.0007   0.0223   0.1358
     0.1633   0.2877   1.0689   1.3611   1.3643   1.3991   1.4221   1.4613
     1.7027   1.8602   1.8827   1.9114   1.9770   1.9873   2.0037   2.0160
     2.0370   2.0549   2.0678   2.0698   2.1171   2.3119   2.3443   2.3784
     2.3988   2.4076   2.4197   2.4589   2.6350   2.6550   2.9220   3.3558

          k = 0.0000 0.0000-0.3464 ( 50118 PWs)   bands (ev):

   -17.3072 -17.3072 -17.3051 -17.3051 -13.1433 -13.1433 -13.1387 -13.1387
   -13.1317 -13.1317 -13.1230 -13.1230 -13.0919 -13.0919 -13.0916 -13.0916
   -13.0888 -13.0888 -13.0882 -13.0882 -13.0828 -13.0828 -13.0821 -13.0821
    -8.7326  -8.7326  -8.3130  -8.3130  -8.3073  -8.3073  -8.2749  -8.2749
    -8.1653  -8.1653  -8.0862  -8.0862  -4.7735  -4.7735  -4.1765  -4.1765
    -4.1739  -4.1739  -4.1553  -4.1553  -4.1247  -4.1247  -4.1208  -4.1208
    -4.1130  -4.1130  -3.7952  -3.7952   0.0453   0.0453   0.0863   0.0863
     0.7363   0.7363   0.9846   0.9846   1.2211   1.2211   1.4737   1.4737
     1.5707   1.5707   1.8311   1.8311   1.9383   1.9383   2.0219   2.0219
     2.0951   2.0951   2.1029   2.1029   2.2571   2.2571   2.3107   2.3107
     2.3471   2.3471   2.3961   2.3961   2.5878   2.5878   2.9991   2.9991

          k = 0.0000 0.3200 0.0000 ( 50121 PWs)   bands (ev):

   -17.3070 -17.3064 -17.3059 -17.3054 -13.1436 -13.1409 -13.1383 -13.1375
   -13.1309 -13.1280 -13.1275 -13.1267 -13.0921 -13.0919 -13.0915 -13.0914
   -13.0887 -13.0885 -13.0884 -13.0882 -13.0828 -13.0825 -13.0824 -13.0822
    -8.7354  -8.5539  -8.5534  -8.3923  -8.2910  -8.2810  -8.2354  -8.2201
    -8.1641  -8.1422  -8.1273  -8.0916  -4.7879  -4.3496  -4.3483  -4.1850
    -4.1732  -4.1599  -4.1598  -4.1479  -4.1320  -4.1276  -4.1268  -4.1254
    -4.1234  -4.0740  -4.0645  -3.7923   0.0609   0.1706   0.3036   0.4615
     0.4721   0.5341   1.0509   1.1086   1.2408   1.2681   1.3049   1.3195
     1.4985   1.5840   1.6785   1.7649   1.8811   1.9626   1.9768   2.0024
     2.0315   2.0424   2.1315   2.1402   2.1547   2.2671   2.2823   2.2877
     2.3343   2.3389   2.4047   2.4728   2.5918   2.6664   2.7225   2.9529

          k = 0.0000 0.3200-0.3464 ( 50184 PWs)   bands (ev):

   -17.3067 -17.3067 -17.3056 -17.3056 -13.1385 -13.1385 -13.1371 -13.1371
   -13.1332 -13.1332 -13.1279 -13.1279 -13.0918 -13.0918 -13.0917 -13.0917
   -13.0886 -13.0886 -13.0883 -13.0883 -13.0827 -13.0827 -13.0823 -13.0823
    -8.6644  -8.6644  -8.4932  -8.4932  -8.2304  -8.2304  -8.2029  -8.2029
    -8.1684  -8.1684  -8.1344  -8.1344  -4.5715  -4.5715  -4.1953  -4.1953
    -4.1666  -4.1666  -4.1652  -4.1652  -4.1433  -4.1433  -4.1260  -4.1260
    -4.1054  -4.1054  -4.0092  -4.0092   0.3754   0.3754   0.4454   0.4454
     0.8226   0.8226   0.8651   0.8651   1.1379   1.1379   1.1986   1.1986
     1.5571   1.5571   1.7078   1.7078   1.8181   1.8181   1.8369   1.8369
     1.9627   1.9627   2.0105   2.0105   2.3195   2.3195   2.3237   2.3237
     2.4001   2.4001   2.4008   2.4008   2.6272   2.6272   2.6637   2.6637

          k = 0.3405 0.0000 0.0000 ( 50214 PWs)   bands (ev):

   -17.3071 -17.3067 -17.3056 -17.3053 -13.1436 -13.1409 -13.1383 -13.1375
   -13.1309 -13.1280 -13.1275 -13.1267 -13.0921 -13.0919 -13.0915 -13.0914
   -13.0887 -13.0885 -13.0884 -13.0883 -13.0828 -13.0825 -13.0824 -13.0822
    -8.7298  -8.5461  -8.5382  -8.3682  -8.2910  -8.2850  -8.2656  -8.2459
    -8.1667  -8.1399  -8.1363  -8.0906  -4.7840  -4.3363  -4.3294  -4.1767
    -4.1703  -4.1567  -4.1567  -4.1539  -4.1455  -4.1240  -4.1226  -4.1182
    -4.1114  -4.0822  -4.0652  -3.8008   0.0617   0.1794   0.2707   0.4245
     0.4712   0.6234   0.9463   1.1544   1.2366   1.2544   1.3091   1.4467
     1.4818   1.5960   1.7301   1.7354   1.9281   1.9571   2.0021   2.0061
     2.0705   2.0729   2.1270   2.1390   2.1696   2.2097   2.2491   2.3046
     2.3046   2.3647   2.3952   2.4566   2.5342   2.5386   2.6653   2.8567

          k = 0.3405 0.0000-0.3464 ( 50200 PWs)   bands (ev):

   -17.3069 -17.3069 -17.3054 -17.3054 -13.1386 -13.1386 -13.1371 -13.1371
   -13.1331 -13.1331 -13.1279 -13.1279 -13.0918 -13.0918 -13.0917 -13.0917
   -13.0886 -13.0886 -13.0883 -13.0883 -13.0827 -13.0827 -13.0823 -13.0823
    -8.6587  -8.6587  -8.4764  -8.4764  -8.2586  -8.2586  -8.1982  -8.1982
    -8.1695  -8.1695  -8.1402  -8.1402  -4.5643  -4.5643  -4.1848  -4.1848
    -4.1767  -4.1767  -4.1494  -4.1494  -4.1247  -4.1247  -4.1158  -4.1158
    -4.1135  -4.1135  -4.0312  -4.0312   0.3388   0.3388   0.4970   0.4970
     0.7576   0.7576   0.8956   0.8956   1.0783   1.0783   1.2493   1.2493
     1.6400   1.6400   1.6897   1.6897   1.8524   1.8524   1.9200   1.9200
     1.9873   1.9873   2.0724   2.0724   2.2675   2.2675   2.3243   2.3243
     2.3538   2.3538   2.3944   2.3944   2.4931   2.4931   2.5515   2.5515

          k = 0.3405 0.3200 0.0000 ( 50152 PWs)   bands (ev):

   -17.3068 -17.3064 -17.3059 -17.3056 -13.1448 -13.1427 -13.1381 -13.1340
   -13.1335 -13.1290 -13.1269 -13.1244 -13.0920 -13.0920 -13.0915 -13.0914
   -13.0886 -13.0885 -13.0885 -13.0883 -13.0827 -13.0825 -13.0824 -13.0823
    -8.6751  -8.5663  -8.4788  -8.3336  -8.3203  -8.3088  -8.2925  -8.2810
    -8.2369  -8.1967  -8.0853  -8.0590  -4.6505  -4.4259  -4.2536  -4.1662
    -4.1643  -4.1552  -4.1514  -4.1461  -4.1396  -4.1373  -4.1255  -4.1208
    -4.1200  -4.0959  -4.0181  -3.8763   0.0782   0.1037   0.1367   0.2442
     0.4650   0.6254   0.9793   1.1757   1.1901   1.1978   1.2872   1.5775
     1.5793   1.6680   1.7818   1.8873   1.9330   1.9756   1.9884   1.9904
     2.0253   2.0829   2.1340   2.1481   2.1828   2.2018   2.2208   2.2467
     2.2554   2.3202   2.3452   2.3994   2.5670   2.6530   2.7285   2.9230

          k = 0.3405 0.3200-0.3464 ( 50168 PWs)   bands (ev):

   -17.3065 -17.3065 -17.3058 -17.3058 -13.1403 -13.1403 -13.1375 -13.1375
   -13.1313 -13.1313 -13.1277 -13.1277 -13.0918 -13.0918 -13.0917 -13.0917
   -13.0886 -13.0886 -13.0884 -13.0884 -13.0826 -13.0826 -13.0824 -13.0824
    -8.6009  -8.6009  -8.4909  -8.4909  -8.3138  -8.3138  -8.2429  -8.2429
    -8.1432  -8.1432  -8.1248  -8.1248  -4.4471  -4.4471  -4.2508  -4.2508
    -4.1620  -4.1620  -4.1489  -4.1489  -4.1350  -4.1350  -4.1158  -4.1158
    -4.1007  -4.1007  -4.0567  -4.0567   0.1655   0.1655   0.5228   0.5228
     0.7449   0.7449   0.8849   0.8849   1.0682   1.0682   1.2803   1.2803
     1.5927   1.5927   1.6876   1.6876   1.8839   1.8839   1.9567   1.9567
     2.0545   2.0545   2.1636   2.1636   2.2254   2.2254   2.2873   2.2873
     2.3200   2.3200   2.3939   2.3939   2.5187   2.5187   2.6327   2.6327

     highest occupied level (ev):     3.3558

!    total energy              =   -8165.85779988 Ry
     estimated scf accuracy    <          4.5E-10 Ry

     The total energy is the sum of the following terms:
     one-electron contribution =    -326.02786692 Ry
     hartree contribution      =     251.49456916 Ry
     xc contribution           =    -792.74430440 Ry
     ewald contribution        =    -648.96288109 Ry
     one-center paw contrib.   =   -6649.61731663 Ry

     convergence has been achieved in   7 iterations

     Forces acting on atoms (cartesian axes, Ry/au):

     atom    1 type  1   force =    -0.00005815   -0.00054262    0.00000000
     atom    2 type  1   force =     0.00005815    0.00054262    0.00000000
     atom    3 type  1   force =    -0.00005815    0.00054262    0.00000000
     atom    4 type  1   force =     0.00005815   -0.00054262    0.00000000
     atom    5 type  2   force =     0.00000000    0.00000000    0.00000000
     atom    6 type  2   force =    -0.00000000    0.00000000    0.00000000
     atom    7 type  2   force =     0.00000000    0.00000000    0.00000000
     atom    8 type  2   force =     0.00000000   -0.00000000    0.00000000
     atom    9 type  3   force =    -0.00126391    0.00013644    0.00000000
     atom   10 type  3   force =     0.00126391   -0.00013644    0.00000000
     atom   11 type  3   force =    -0.00126391   -0.00013644    0.00000000
     atom   12 type  3   force =     0.00126391    0.00013644    0.00000000
     atom   13 type  3   force =     0.00009880   -0.00016697   -0.00041094
     atom   14 type  3   force =    -0.00009880    0.00016697   -0.00041094
     atom   15 type  3   force =     0.00009880    0.00016697    0.00041094
     atom   16 type  3   force =    -0.00009880   -0.00016697    0.00041094
     atom   17 type  3   force =    -0.00009880    0.00016697    0.00041094
     atom   18 type  3   force =     0.00009880   -0.00016697    0.00041094
     atom   19 type  3   force =    -0.00009880   -0.00016697   -0.00041094
     atom   20 type  3   force =     0.00009880    0.00016697   -0.00041094

     Total force =     0.003051     Total SCF correction =     0.000067


     Computing stress (Cartesian axis) and pressure

          total   stress  (Ry/bohr**3)                   (kbar)     P=       -0.76
  -0.00000293   0.00000000   0.00000000           -0.43        0.00        0.00
   0.00000000  -0.00000309   0.00000000            0.00       -0.45        0.00
   0.00000000   0.00000000  -0.00000955            0.00        0.00       -1.40

     Energy error            =      1.0E-04 Ry
     Gradient error          =      1.3E-03 Ry/Bohr
     Cell gradient error     =      1.4E+00 kbar

     number of scf cycles    =  31
     number of bfgs steps    =  30

     enthalpy           old  =   -8165.8576968791 Ry
     enthalpy           new  =   -8165.8577998824 Ry

     CASE: enthalpy          _new < enthalpy          _old

     new trust radius        =       0.0121109672 bohr
     new conv_thr            =       0.0000000010 Ry

     new unit-cell volume =   6259.31786 a.u.^3 (   927.53521 Ang^3 )
     density =      5.16183 g/cm^3

CELL_PARAMETERS (angstrom)
   8.390697979   0.000000000   0.000000000
   0.000000000   8.926876743   0.000000000
   0.000000000   0.000000000  12.383196881

ATOMIC_POSITIONS (crystal)
Cs               0.4668441765        0.4176103688        0.2500000000
Cs               0.5331558235        0.5823896312        0.7500000000
Cs              -0.0331558235        0.0823896312        0.7500000000
Cs               1.0331558235        0.9176103688        0.2500000000
Pb               0.5000000000        0.0000000000       -0.0000000000
Pb               0.5000000000       -0.0000000000        0.5000000000
Pb               0.0000000000        0.5000000000       -0.0000000000
Pb              -0.0000000000        0.5000000000        0.5000000000
I                0.5881856627        0.0075622382        0.2500000000
I                0.4118143373        0.9924377618        0.7500000000
I                0.0881856627        0.4924377618        0.7500000000
I                0.9118143373        0.5075622382        0.2500000000
I                0.6874570883        0.3055806567        0.9606370719
I                0.3125429117        0.6944193433        0.4606370719
I                0.1874570883        0.1944193433        0.0393629281
I                0.8125429117        0.8055806567        0.5393629281
I                0.3125429117        0.6944193433        0.0393629281
I                0.6874570883        0.3055806567        0.5393629281
I                0.8125429117        0.8055806567        0.9606370719
I                0.1874570883        0.1944193433        0.4606370719



     Writing config-only to output data dir ./tmp/cspbi3_gamma_s1.save/ :
     XML data file
     NEW-OLD atomic charge density approx. for the potential
     New effective cutoffs (rho, wfc):  501.15   62.60

     total cpu time spent up to now is    41609.4 secs

     Self-consistent Calculation

     iteration #  1     ecut=    60.00 Ry     beta= 0.50
     Davidson diagonalization with overlap
     ethr =  1.00E-06,  avg # of iterations =  3.0

     Threshold (ethr) on eigenvalues was too large:
     Diagonalizing with lowered threshold

     Davidson diagonalization with overlap
     ethr =  1.50E-08,  avg # of iterations =  5.6

     total cpu time spent up to now is    41904.4 secs

     total energy              =   -8165.85782648 Ry
     estimated scf accuracy    <       0.00003696 Ry

     iteration #  2     ecut=    60.00 Ry     beta= 0.50
     Davidson diagonalization with overlap
     ethr =  2.10E-08,  avg # of iterations =  4.0

     total cpu time spent up to now is    42033.2 secs

     total energy              =   -8165.85784492 Ry
     estimated scf accuracy    <       0.00000418 Ry

     iteration #  3     ecut=    60.00 Ry     beta= 0.50
     Davidson diagonalization with overlap
     ethr =  2.38E-09,  avg # of iterations =  3.1

     total cpu time spent up to now is    42122.5 secs

     total energy              =   -8165.85784789 Ry
     estimated scf accuracy    <       0.00000170 Ry

     iteration #  4     ecut=    60.00 Ry     beta= 0.50
     Davidson diagonalization with overlap
     ethr =  9.68E-10,  avg # of iterations =  5.0

     total cpu time spent up to now is    42251.9 secs

     total energy              =   -8165.85784867 Ry
     estimated scf accuracy    <       0.00000178 Ry

     iteration #  5     ecut=    60.00 Ry     beta= 0.50
     Davidson diagonalization with overlap
     ethr =  9.68E-10,  avg # of iterations =  1.1

     total cpu time spent up to now is    42335.8 secs

     total energy              =   -8165.85784910 Ry
     estimated scf accuracy    <       0.00000310 Ry

     iteration #  6     ecut=    60.00 Ry     beta= 0.50
     Davidson diagonalization with overlap
     ethr =  9.68E-10,  avg # of iterations =  3.0

     total cpu time spent up to now is    42436.6 secs

     total energy              =   -8165.85784926 Ry
     estimated scf accuracy    <       0.00000002 Ry

     iteration #  7     ecut=    60.00 Ry     beta= 0.50
     Davidson diagonalization with overlap
     ethr =  1.10E-11,  avg # of iterations =  4.8

     total cpu time spent up to now is    42581.3 secs

     total energy              =   -8165.85784927 Ry
     estimated scf accuracy    <       0.00000001 Ry

     iteration #  8     ecut=    60.00 Ry     beta= 0.50
     Davidson diagonalization with overlap
     ethr =  6.51E-12,  avg # of iterations =  4.6

     total cpu time spent up to now is    42702.4 secs

     total energy              =   -8165.85784927 Ry
     estimated scf accuracy    <       0.00000001 Ry

     iteration #  9     ecut=    60.00 Ry     beta= 0.50
     Davidson diagonalization with overlap
     ethr =  6.51E-12,  avg # of iterations =  2.1

     total cpu time spent up to now is    42799.5 secs

     End of self-consistent calculation

          k = 0.0000 0.0000 0.0000 ( 50101 PWs)   bands (ev):

   -17.2947 -17.2941 -17.2925 -17.2920 -13.1324 -13.1309 -13.1305 -13.1253
   -13.1194 -13.1122 -13.1100 -13.1099 -13.0788 -13.0786 -13.0783 -13.0780
   -13.0757 -13.0756 -13.0751 -13.0750 -13.0698 -13.0695 -13.0691 -13.0688
    -8.7969  -8.6190  -8.3296  -8.3153  -8.2942  -8.2918  -8.2650  -8.2629
    -8.2580  -8.0838  -8.0711  -8.0668  -5.0001  -4.5113  -4.1653  -4.1604
    -4.1549  -4.1546  -4.1514  -4.1426  -4.1419  -4.1370  -4.1267  -4.1065
    -4.0936  -4.0874  -3.9408  -3.5098  -0.0211   0.0044   0.0268   0.1437
     0.1690   0.2941   1.0760   1.3682   1.3719   1.4089   1.4301   1.4725
     1.7130   1.8708   1.8931   1.9191   1.9878   1.9950   2.0137   2.0265
     2.0437   2.0628   2.0770   2.0788   2.1301   2.3234   2.3531   2.3883
     2.4109   2.4183   2.4313   2.4679   2.6453   2.6665   2.9376   3.3717

          k = 0.0000 0.0000-0.3463 ( 50118 PWs)   bands (ev):

   -17.2944 -17.2944 -17.2923 -17.2923 -13.1306 -13.1306 -13.1259 -13.1259
   -13.1188 -13.1188 -13.1100 -13.1100 -13.0786 -13.0786 -13.0783 -13.0783
   -13.0756 -13.0756 -13.0750 -13.0750 -13.0697 -13.0697 -13.0689 -13.0689
    -8.7261  -8.7261  -8.3048  -8.3048  -8.2978  -8.2978  -8.2671  -8.2671
    -8.1557  -8.1557  -8.0769  -8.0769  -4.7657  -4.7657  -4.1642  -4.1642
    -4.1621  -4.1621  -4.1433  -4.1433  -4.1124  -4.1124  -4.1085  -4.1085
    -4.1005  -4.1005  -3.7815  -3.7815   0.0505   0.0505   0.0908   0.0908
     0.7456   0.7456   0.9947   0.9947   1.2286   1.2286   1.4845   1.4845
     1.5790   1.5790   1.8390   1.8390   1.9462   1.9462   2.0313   2.0313
     2.1041   2.1041   2.1127   2.1127   2.2674   2.2674   2.3208   2.3208
     2.3587   2.3587   2.4065   2.4065   2.5995   2.5995   3.0140   3.0140

          k = 0.0000 0.3203 0.0000 ( 50121 PWs)   bands (ev):

   -17.2942 -17.2936 -17.2930 -17.2925 -13.1308 -13.1281 -13.1255 -13.1246
   -13.1181 -13.1151 -13.1146 -13.1138 -13.0788 -13.0786 -13.0782 -13.0781
   -13.0756 -13.0754 -13.0753 -13.0751 -13.0696 -13.0694 -13.0693 -13.0690
    -8.7285  -8.5471  -8.5461  -8.3851  -8.2806  -8.2708  -8.2276  -8.2119
    -8.1545  -8.1334  -8.1182  -8.0817  -4.7789  -4.3387  -4.3380  -4.1727
    -4.1615  -4.1480  -4.1474  -4.1356  -4.1201  -4.1152  -4.1141  -4.1131
    -4.1109  -4.0616  -4.0527  -3.7808   0.0704   0.1813   0.3090   0.4693
     0.4761   0.5406   1.0574   1.1165   1.2471   1.2763   1.3122   1.3271
     1.5071   1.5951   1.6882   1.7749   1.8913   1.9728   1.9872   2.0119
     2.0437   2.0524   2.1401   2.1495   2.1626   2.2761   2.2933   2.2984
     2.3470   2.3483   2.4158   2.4832   2.6018   2.6778   2.7337   2.9661

          k = 0.0000 0.3203-0.3463 ( 50184 PWs)   bands (ev):

   -17.2939 -17.2939 -17.2928 -17.2928 -13.1258 -13.1258 -13.1243 -13.1243
   -13.1203 -13.1203 -13.1150 -13.1150 -13.0785 -13.0785 -13.0784 -13.0784
   -13.0755 -13.0755 -13.0752 -13.0752 -13.0695 -13.0695 -13.0692 -13.0692
    -8.6575  -8.6575  -8.4854  -8.4854  -8.2221  -8.2221  -8.1934  -8.1934
    -8.1588  -8.1588  -8.1254  -8.1254  -4.5625  -4.5625  -4.1831  -4.1831
    -4.1545  -4.1545  -4.1533  -4.1533  -4.1313  -4.1313  -4.1137  -4.1137
    -4.0930  -4.0930  -3.9969  -3.9969   0.3808   0.3808   0.4527   0.4527
     0.8319   0.8319   0.8745   0.8745   1.1446   1.1446   1.2067   1.2067
     1.5666   1.5666   1.7166   1.7166   1.8255   1.8255   1.8449   1.8449
     1.9751   1.9751   2.0214   2.0214   2.3302   2.3302   2.3351   2.3351
     2.4098   2.4098   2.4111   2.4111   2.6385   2.6385   2.6747   2.6747

          k = 0.3407 0.0000 0.0000 ( 50214 PWs)   bands (ev):

   -17.2943 -17.2938 -17.2927 -17.2924 -13.1308 -13.1281 -13.1256 -13.1246
   -13.1181 -13.1151 -13.1145 -13.1138 -13.0788 -13.0786 -13.0782 -13.0781
   -13.0756 -13.0754 -13.0753 -13.0751 -13.0697 -13.0694 -13.0693 -13.0690
    -8.7228  -8.5397  -8.5300  -8.3611  -8.2809  -8.2749  -8.2575  -8.2378
    -8.1569  -8.1316  -8.1271  -8.0809  -4.7750  -4.3267  -4.3174  -4.1646
    -4.1585  -4.1447  -4.1447  -4.1417  -4.1334  -4.1117  -4.1103  -4.1056
    -4.0987  -4.0705  -4.0526  -3.7893   0.0712   0.1897   0.2768   0.4303
     0.4773   0.6285   0.9553   1.1620   1.2456   1.2624   1.3167   1.4545
     1.4925   1.6040   1.7387   1.7467   1.9382   1.9661   2.0125   2.0145
     2.0809   2.0836   2.1377   2.1485   2.1788   2.2196   2.2584   2.3137
     2.3147   2.3747   2.4059   2.4678   2.5455   2.5508   2.6754   2.8698

          k = 0.3407 0.0000-0.3463 ( 50200 PWs)   bands (ev):

   -17.2940 -17.2940 -17.2926 -17.2926 -13.1258 -13.1258 -13.1243 -13.1243
   -13.1202 -13.1202 -13.1150 -13.1150 -13.0785 -13.0785 -13.0784 -13.0784
   -13.0755 -13.0755 -13.0752 -13.0752 -13.0695 -13.0695 -13.0692 -13.0692
    -8.6517  -8.6517  -8.4684  -8.4684  -8.2505  -8.2505  -8.1885  -8.1885
    -8.1600  -8.1600  -8.1314  -8.1314  -4.5552  -4.5552  -4.1725  -4.1725
    -4.1649  -4.1649  -4.1373  -4.1373  -4.1125  -4.1125  -4.1035  -4.1035
    -4.1009  -4.1009  -4.0192  -4.0192   0.3449   0.3449   0.5032   0.5032
     0.7669   0.7669   0.9039   0.9039   1.0880   1.0880   1.2576   1.2576
     1.6483   1.6483   1.6992   1.6992   1.8637   1.8637   1.9295   1.9295
     1.9941   1.9941   2.0816   2.0816   2.2771   2.2771   2.3341   2.3341
     2.3640   2.3640   2.4057   2.4057   2.5046   2.5046   2.5635   2.5635

          k = 0.3407 0.3203 0.0000 ( 50152 PWs)   bands (ev):

   -17.2939 -17.2935 -17.2930 -17.2927 -13.1320 -13.1299 -13.1253 -13.1212
   -13.1206 -13.1161 -13.1140 -13.1115 -13.0787 -13.0787 -13.0782 -13.0781
   -13.0755 -13.0754 -13.0753 -13.0752 -13.0695 -13.0694 -13.0693 -13.0691
    -8.6678  -8.5582  -8.4721  -8.3261  -8.3123  -8.3011  -8.2825  -8.2713
    -8.2283  -8.1881  -8.0756  -8.0491  -4.6406  -4.4146  -4.2430  -4.1543
    -4.1522  -4.1431  -4.1394  -4.1338  -4.1274  -4.1249  -4.1131  -4.1084
    -4.1074  -4.0835  -4.0065  -3.8648   0.0875   0.1089   0.1457   0.2496
     0.4715   0.6315   0.9876   1.1834   1.1984   1.2060   1.2953   1.5851
     1.5872   1.6767   1.7912   1.8975   1.9433   1.9858   1.9993   1.9995
     2.0353   2.0913   2.1447   2.1581   2.1918   2.2119   2.2297   2.2562
     2.2666   2.3309   2.3562   2.4110   2.5783   2.6649   2.7401   2.9367

          k = 0.3407 0.3203-0.3463 ( 50168 PWs)   bands (ev):

   -17.2937 -17.2937 -17.2929 -17.2929 -13.1276 -13.1276 -13.1247 -13.1247
   -13.1184 -13.1184 -13.1147 -13.1147 -13.0785 -13.0785 -13.0784 -13.0784
   -13.0754 -13.0754 -13.0753 -13.0753 -13.0694 -13.0694 -13.0692 -13.0692
    -8.5936  -8.5936  -8.4828  -8.4828  -8.3061  -8.3061  -8.2342  -8.2342
    -8.1337  -8.1337  -8.1154  -8.1154  -4.4373  -4.4373  -4.2395  -4.2395
    -4.1498  -4.1498  -4.1368  -4.1368  -4.1228  -4.1228  -4.1033  -4.1033
    -4.0883  -4.0883  -4.0443  -4.0443   0.1704   0.1704   0.5287   0.5287
     0.7545   0.7545   0.8942   0.8942   1.0769   1.0769   1.2886   1.2886
     1.6014   1.6014   1.6955   1.6955   1.8921   1.8921   1.9677   1.9677
     2.0643   2.0643   2.1732   2.1732   2.2358   2.2358   2.2975   2.2975
     2.3294   2.3294   2.4051   2.4051   2.5301   2.5301   2.6454   2.6454

     highest occupied level (ev):     3.3717

!    total energy              =   -8165.85784927 Ry
     estimated scf accuracy    <          1.7E-10 Ry

     The total energy is the sum of the following terms:
     one-electron contribution =    -325.71315695 Ry
     hartree contribution      =     251.41224832 Ry
     xc contribution           =    -792.75315018 Ry
     ewald contribution        =    -649.18609600 Ry
     one-center paw contrib.   =   -6649.61769447 Ry

     convergence has been achieved in   9 iterations

     Forces acting on atoms (cartesian axes, Ry/au):

     atom    1 type  1   force =    -0.00001544   -0.00034048    0.00000000
     atom    2 type  1   force =     0.00001544    0.00034048    0.00000000
     atom    3 type  1   force =    -0.00001544    0.00034048    0.00000000
     atom    4 type  1   force =     0.00001544   -0.00034048    0.00000000
     atom    5 type  2   force =     0.00000000    0.00000000    0.00000000
     atom    6 type  2   force =    -0.00000000    0.00000000    0.00000000
     atom    7 type  2   force =     0.00000000    0.00000000   -0.00000000
     atom    8 type  2   force =     0.00000000   -0.00000000    0.00000000
     atom    9 type  3   force =    -0.00111316   -0.00000316    0.00000000
     atom   10 type  3   force =     0.00111316    0.00000316    0.00000000
     atom   11 type  3   force =    -0.00111316    0.00000316    0.00000000
     atom   12 type  3   force =     0.00111316   -0.00000316    0.00000000
     atom   13 type  3   force =     0.00022052    0.00016593   -0.00039116
     atom   14 type  3   force =    -0.00022052   -0.00016593   -0.00039116
     atom   15 type  3   force =     0.00022052   -0.00016593    0.00039116
     atom   16 type  3   force =    -0.00022052    0.00016593    0.00039116
     atom   17 type  3   force =    -0.00022052   -0.00016593    0.00039116
     atom   18 type  3   force =     0.00022052    0.00016593    0.00039116
     atom   19 type  3   force =    -0.00022052    0.00016593   -0.00039116
     atom   20 type  3   force =     0.00022052   -0.00016593   -0.00039116

     Total force =     0.002693     Total SCF correction =     0.000007


     Computing stress (Cartesian axis) and pressure

          total   stress  (Ry/bohr**3)                   (kbar)     P=       -0.51
  -0.00000159   0.00000000   0.00000000           -0.23        0.00        0.00
   0.00000000   0.00000030   0.00000000            0.00        0.04        0.00
   0.00000000   0.00000000  -0.00000912            0.00        0.00       -1.34

     Energy error            =      4.9E-05 Ry
     Gradient error          =      1.1E-03 Ry/Bohr
     Cell gradient error     =      1.3E+00 kbar

     number of scf cycles    =  32
     number of bfgs steps    =  31

     enthalpy           old  =   -8165.8577998824 Ry
     enthalpy           new  =   -8165.8578492730 Ry

     CASE: enthalpy          _new < enthalpy          _old

     new trust radius        =       0.0074893713 bohr
     new conv_thr            =       0.0000000010 Ry

     new unit-cell volume =   6251.52692 a.u.^3 (   926.38071 Ang^3 )
     density =      5.16826 g/cm^3

CELL_PARAMETERS (angstrom)
   8.386726521   0.000000000   0.000000000
   0.000000000   8.923059194   0.000000000
   0.000000000   0.000000000  12.378934047

ATOMIC_POSITIONS (crystal)
Cs               0.4666683944        0.4173204625        0.2500000000
Cs               0.5333316056        0.5826795375        0.7500000000
Cs              -0.0333316056        0.0826795375        0.7500000000
Cs               1.0333316056        0.9173204625        0.2500000000
Pb               0.5000000000        0.0000000000       -0.0000000000
Pb               0.5000000000       -0.0000000000        0.5000000000
Pb               0.0000000000        0.5000000000       -0.0000000000
Pb              -0.0000000000        0.5000000000        0.5000000000
I                0.5879989288        0.0076127060        0.2500000000
I                0.4120010712        0.9923872940        0.7500000000
I                0.0879989288        0.4923872940        0.7500000000
I                0.9120010712        0.5076127060        0.2500000000
I                0.6874262495        0.3054617466        0.9605194005
I                0.3125737505        0.6945382534        0.4605194005
I                0.1874262495        0.1945382534        0.0394805995
I                0.8125737505        0.8054617466        0.5394805995
I                0.3125737505        0.6945382534        0.0394805995
I                0.6874262495        0.3054617466        0.5394805995
I                0.8125737505        0.8054617466        0.9605194005
I                0.1874262495        0.1945382534        0.4605194005



     Writing config-only to output data dir ./tmp/cspbi3_gamma_s1.save/ :
     XML data file
     NEW-OLD atomic charge density approx. for the potential
     New effective cutoffs (rho, wfc):  501.62   62.66

     total cpu time spent up to now is    42931.9 secs

     Self-consistent Calculation

     iteration #  1     ecut=    60.00 Ry     beta= 0.50
     Davidson diagonalization with overlap
     ethr =  1.00E-06,  avg # of iterations =  2.2

     Threshold (ethr) on eigenvalues was too large:
     Diagonalizing with lowered threshold

     Davidson diagonalization with overlap
     ethr =  1.51E-08,  avg # of iterations =  4.9

     total cpu time spent up to now is    43169.0 secs

     total energy              =   -8165.85787019 Ry
     estimated scf accuracy    <       0.00002932 Ry

     iteration #  2     ecut=    60.00 Ry     beta= 0.50
     Davidson diagonalization with overlap
     ethr =  1.67E-08,  avg # of iterations =  4.0

     total cpu time spent up to now is    43298.5 secs

     total energy              =   -8165.85788381 Ry
     estimated scf accuracy    <       0.00000333 Ry

     iteration #  3     ecut=    60.00 Ry     beta= 0.50
     Davidson diagonalization with overlap
     ethr =  1.89E-09,  avg # of iterations =  1.4

     total cpu time spent up to now is    43384.6 secs

     total energy              =   -8165.85788596 Ry
     estimated scf accuracy    <       0.00000128 Ry

     iteration #  4     ecut=    60.00 Ry     beta= 0.50
     Davidson diagonalization with overlap
     ethr =  7.25E-10,  avg # of iterations =  5.0

     total cpu time spent up to now is    43508.5 secs

     total energy              =   -8165.85788666 Ry
     estimated scf accuracy    <       0.00000160 Ry

     iteration #  5     ecut=    60.00 Ry     beta= 0.50
     Davidson diagonalization with overlap
     ethr =  7.25E-10,  avg # of iterations =  1.6

     total cpu time spent up to now is    43599.6 secs

     total energy              =   -8165.85788692 Ry
     estimated scf accuracy    <       0.00000275 Ry

     iteration #  6     ecut=    60.00 Ry     beta= 0.50
     Davidson diagonalization with overlap
     ethr =  7.25E-10,  avg # of iterations =  3.0

     total cpu time spent up to now is    43699.3 secs

     total energy              =   -8165.85788709 Ry
     estimated scf accuracy    <       0.00000007 Ry

     iteration #  7     ecut=    60.00 Ry     beta= 0.50
     Davidson diagonalization with overlap
     ethr =  3.89E-11,  avg # of iterations =  4.0

     total cpu time spent up to now is    43822.3 secs

     total energy              =   -8165.85788710 Ry
     estimated scf accuracy    <       0.00000008 Ry

     iteration #  8     ecut=    60.00 Ry     beta= 0.50
     Davidson diagonalization with overlap
     ethr =  3.89E-11,  avg # of iterations =  3.0

     total cpu time spent up to now is    43918.6 secs

     End of self-consistent calculation

          k = 0.0000 0.0000 0.0000 ( 50101 PWs)   bands (ev):

   -17.2822 -17.2815 -17.2799 -17.2795 -13.1199 -13.1183 -13.1179 -13.1126
   -13.1068 -13.0994 -13.0972 -13.0971 -13.0657 -13.0655 -13.0652 -13.0649
   -13.0627 -13.0626 -13.0621 -13.0620 -13.0568 -13.0565 -13.0560 -13.0558
    -8.7903  -8.6117  -8.3216  -8.3070  -8.2853  -8.2834  -8.2569  -8.2551
    -8.2494  -8.0744  -8.0614  -8.0574  -4.9924  -4.5010  -4.1533  -4.1487
    -4.1434  -4.1427  -4.1395  -4.1307  -4.1301  -4.1250  -4.1147  -4.0944
    -4.0814  -4.0752  -3.9288  -3.4964  -0.0145   0.0108   0.0328   0.1517
     0.1753   0.2987   1.0836   1.3764   1.3806   1.4176   1.4378   1.4818
     1.7216   1.8810   1.9033   1.9272   1.9975   2.0038   2.0227   2.0368
     2.0516   2.0711   2.0867   2.0875   2.1411   2.3339   2.3629   2.3984
     2.4218   2.4285   2.4423   2.4774   2.6571   2.6776   2.9510   3.3873

          k = 0.0000 0.0000-0.3464 ( 50118 PWs)   bands (ev):

   -17.2819 -17.2819 -17.2797 -17.2797 -13.1180 -13.1180 -13.1133 -13.1133
   -13.1061 -13.1061 -13.0972 -13.0972 -13.0655 -13.0655 -13.0652 -13.0652
   -13.0627 -13.0627 -13.0620 -13.0620 -13.0567 -13.0567 -13.0559 -13.0559
    -8.7192  -8.7192  -8.2963  -8.2963  -8.2898  -8.2898  -8.2584  -8.2584
    -8.1468  -8.1468  -8.0673  -8.0673  -4.7569  -4.7569  -4.1522  -4.1522
    -4.1505  -4.1505  -4.1315  -4.1315  -4.1004  -4.1004  -4.0963  -4.0963
    -4.0883  -4.0883  -3.7694  -3.7694   0.0571   0.0571   0.0971   0.0971
     0.7541   0.7541   1.0028   1.0028   1.2368   1.2368   1.4938   1.4938
     1.5870   1.5870   1.8476   1.8476   1.9545   1.9545   2.0407   2.0407
     2.1130   2.1130   2.1220   2.1220   2.2774   2.2774   2.3308   2.3308
     2.3693   2.3693   2.4169   2.4169   2.6107   2.6107   3.0274   3.0274

          k = 0.0000 0.3204 0.0000 ( 50121 PWs)   bands (ev):

   -17.2816 -17.2810 -17.2805 -17.2800 -13.1182 -13.1155 -13.1129 -13.1119
   -13.1054 -13.1023 -13.1018 -13.1011 -13.0657 -13.0655 -13.0651 -13.0650
   -13.0626 -13.0624 -13.0623 -13.0621 -13.0566 -13.0564 -13.0563 -13.0560
    -8.7217  -8.5396  -8.5388  -8.3770  -8.2722  -8.2626  -8.2190  -8.2031
    -8.1456  -8.1242  -8.1088  -8.0723  -4.7704  -4.3279  -4.3279  -4.1608
    -4.1499  -4.1364  -4.1353  -4.1235  -4.1083  -4.1032  -4.1020  -4.1010
    -4.0988  -4.0495  -4.0407  -3.7685   0.0767   0.1881   0.3156   0.4772
     0.4824   0.5482   1.0646   1.1242   1.2551   1.2841   1.3199   1.3355
     1.5150   1.6049   1.6978   1.7836   1.9008   1.9828   1.9969   2.0215
     2.0544   2.0625   2.1491   2.1589   2.1715   2.2860   2.3039   2.3081
     2.3582   2.3583   2.4263   2.4936   2.6122   2.6888   2.7462   2.9801

          k = 0.0000 0.3204-0.3464 ( 50184 PWs)   bands (ev):

   -17.2813 -17.2813 -17.2802 -17.2802 -13.1131 -13.1131 -13.1117 -13.1117
   -13.1076 -13.1076 -13.1022 -13.1022 -13.0654 -13.0654 -13.0653 -13.0653
   -13.0625 -13.0625 -13.0622 -13.0622 -13.0565 -13.0565 -13.0561 -13.0561
    -8.6505  -8.6505  -8.4779  -8.4779  -8.2133  -8.2133  -8.1847  -8.1847
    -8.1499  -8.1499  -8.1162  -8.1162  -4.5531  -4.5531  -4.1716  -4.1716
    -4.1426  -4.1426  -4.1416  -4.1416  -4.1194  -4.1194  -4.1017  -4.1017
    -4.0809  -4.0809  -3.9851  -3.9851   0.3877   0.3877   0.4602   0.4602
     0.8404   0.8404   0.8823   0.8823   1.1522   1.1522   1.2148   1.2148
     1.5757   1.5757   1.7251   1.7251   1.8336   1.8336   1.8529   1.8529
     1.9858   1.9858   2.0316   2.0316   2.3405   2.3405   2.3457   2.3457
     2.4198   2.4198   2.4212   2.4212   2.6495   2.6495   2.6859   2.6859

          k = 0.3409 0.0000 0.0000 ( 50214 PWs)   bands (ev):

   -17.2817 -17.2813 -17.2801 -17.2798 -13.1182 -13.1155 -13.1129 -13.1119
   -13.1055 -13.1023 -13.1018 -13.1011 -13.0657 -13.0655 -13.0651 -13.0650
   -13.0626 -13.0624 -13.0623 -13.0621 -13.0566 -13.0564 -13.0563 -13.0560
    -8.7159  -8.5322  -8.5226  -8.3529  -8.2727  -8.2666  -8.2491  -8.2290
    -8.1475  -8.1229  -8.1178  -8.0716  -4.7665  -4.3158  -4.3071  -4.1527
    -4.1469  -4.1328  -4.1328  -4.1297  -4.1216  -4.0997  -4.0982  -4.0934
    -4.0865  -4.0585  -4.0404  -3.7771   0.0775   0.1961   0.2836   0.4375
     0.4842   0.6355   0.9635   1.1697   1.2548   1.2703   1.3242   1.4631
     1.5016   1.6120   1.7478   1.7563   1.9479   1.9756   2.0223   2.0234
     2.0912   2.0937   2.1481   2.1579   2.1881   2.2291   2.2673   2.3233
     2.3248   2.3847   2.4160   2.4784   2.5565   2.5623   2.6874   2.8838

          k = 0.3409 0.0000-0.3464 ( 50200 PWs)   bands (ev):

   -17.2815 -17.2815 -17.2800 -17.2800 -13.1131 -13.1131 -13.1117 -13.1117
   -13.1076 -13.1076 -13.1022 -13.1022 -13.0654 -13.0654 -13.0653 -13.0653
   -13.0625 -13.0625 -13.0622 -13.0622 -13.0565 -13.0565 -13.0561 -13.0561
    -8.6446  -8.6446  -8.4608  -8.4608  -8.2418  -8.2418  -8.1797  -8.1797
    -8.1511  -8.1511  -8.1223  -8.1223  -4.5458  -4.5458  -4.1608  -4.1608
    -4.1533  -4.1533  -4.1255  -4.1255  -4.1006  -4.1006  -4.0915  -4.0915
    -4.0887  -4.0887  -4.0077  -4.0077   0.3520   0.3520   0.5102   0.5102
     0.7753   0.7753   0.9115   0.9115   1.0968   1.0968   1.2658   1.2658
     1.6569   1.6569   1.7083   1.7083   1.8738   1.8738   1.9386   1.9386
     2.0023   2.0023   2.0911   2.0911   2.2863   2.2863   2.3438   2.3438
     2.3740   2.3740   2.4163   2.4163   2.5157   2.5157   2.5750   2.5750

          k = 0.3409 0.3204 0.0000 ( 50152 PWs)   bands (ev):

   -17.2814 -17.2810 -17.2805 -17.2802 -13.1194 -13.1173 -13.1126 -13.1086
   -13.1079 -13.1034 -13.1013 -13.0987 -13.0656 -13.0656 -13.0651 -13.0650
   -13.0625 -13.0624 -13.0623 -13.0622 -13.0565 -13.0564 -13.0563 -13.0561
    -8.6608  -8.5510  -8.4643  -8.3177  -8.3039  -8.2926  -8.2744  -8.2631
    -8.2196  -8.1791  -8.0663  -8.0397  -4.6316  -4.4048  -4.2317  -4.1426
    -4.1403  -4.1312  -4.1276  -4.1218  -4.1156  -4.1129  -4.1010  -4.0964
    -4.0951  -4.0714  -3.9943  -3.8526   0.0937   0.1153   0.1515   0.2566
     0.4786   0.6390   0.9956   1.1917   1.2061   1.2137   1.3031   1.5935
     1.5953   1.6853   1.8003   1.9076   1.9525   1.9958   2.0088   2.0095
     2.0444   2.1004   2.1548   2.1679   2.2008   2.2217   2.2390   2.2661
     2.2771   2.3412   2.3666   2.4220   2.5893   2.6762   2.7532   2.9512

          k = 0.3409 0.3204-0.3464 ( 50168 PWs)   bands (ev):

   -17.2811 -17.2811 -17.2804 -17.2804 -13.1150 -13.1150 -13.1121 -13.1121
   -13.1056 -13.1056 -13.1020 -13.1020 -13.0654 -13.0654 -13.0653 -13.0653
   -13.0624 -13.0624 -13.0623 -13.0623 -13.0564 -13.0564 -13.0562 -13.0562
    -8.5864  -8.5864  -8.4753  -8.4753  -8.2976  -8.2976  -8.2254  -8.2254
    -8.1247  -8.1247  -8.1062  -8.1062  -4.4274  -4.4274  -4.2287  -4.2287
    -4.1379  -4.1379  -4.1250  -4.1250  -4.1109  -4.1109  -4.0912  -4.0912
    -4.0761  -4.0761  -4.0323  -4.0323   0.1769   0.1769   0.5356   0.5356
     0.7628   0.7628   0.9024   0.9024   1.0852   1.0852   1.2965   1.2965
     1.6099   1.6099   1.7039   1.7039   1.9005   1.9005   1.9777   1.9777
     2.0736   2.0736   2.1828   2.1828   2.2457   2.2457   2.3076   2.3076
     2.3390   2.3390   2.4156   2.4156   2.5415   2.5415   2.6575   2.6575

     highest occupied level (ev):     3.3873

!    total energy              =   -8165.85788711 Ry
     estimated scf accuracy    <          3.8E-10 Ry

     The total energy is the sum of the following terms:
     one-electron contribution =    -325.38339884 Ry
     hartree contribution      =     251.32187285 Ry
     xc contribution           =    -792.76209205 Ry
     ewald contribution        =    -649.41590794 Ry
     one-center paw contrib.   =   -6649.61836112 Ry

     convergence has been achieved in   8 iterations

     Forces acting on atoms (cartesian axes, Ry/au):

     atom    1 type  1   force =     0.00002972   -0.00020606    0.00000000
     atom    2 type  1   force =    -0.00002972    0.00020606    0.00000000
     atom    3 type  1   force =     0.00002972    0.00020606    0.00000000
     atom    4 type  1   force =    -0.00002972   -0.00020606   -0.00000000
     atom    5 type  2   force =     0.00000000    0.00000000   -0.00000000
     atom    6 type  2   force =    -0.00000000    0.00000000    0.00000000
     atom    7 type  2   force =     0.00000000   -0.00000000    0.00000000
     atom    8 type  2   force =     0.00000000    0.00000000   -0.00000000
     atom    9 type  3   force =    -0.00094189   -0.00009281    0.00000000
     atom   10 type  3   force =     0.00094189    0.00009281    0.00000000
     atom   11 type  3   force =    -0.00094189    0.00009281    0.00000000
     atom   12 type  3   force =     0.00094189   -0.00009281    0.00000000
     atom   13 type  3   force =     0.00026043    0.00032908   -0.00037382
     atom   14 type  3   force =    -0.00026043   -0.00032908   -0.00037382
     atom   15 type  3   force =     0.00026043   -0.00032908    0.00037382
     atom   16 type  3   force =    -0.00026043    0.00032908    0.00037382
     atom   17 type  3   force =    -0.00026043   -0.00032908    0.00037382
     atom   18 type  3   force =     0.00026043    0.00032908    0.00037382
     atom   19 type  3   force =    -0.00026043    0.00032908   -0.00037382
     atom   20 type  3   force =     0.00026043   -0.00032908   -0.00037382

     Total force =     0.002507     Total SCF correction =     0.000014


     Computing stress (Cartesian axis) and pressure

          total   stress  (Ry/bohr**3)                   (kbar)     P=       -0.25
  -0.00000039   0.00000000   0.00000000           -0.06        0.00        0.00
   0.00000000   0.00000262   0.00000000            0.00        0.39        0.00
   0.00000000   0.00000000  -0.00000740            0.00        0.00       -1.09

     Energy error            =      3.8E-05 Ry
     Gradient error          =      9.4E-04 Ry/Bohr
     Cell gradient error     =      1.1E+00 kbar

     number of scf cycles    =  33
     number of bfgs steps    =  32

     enthalpy           old  =   -8165.8578492730 Ry
     enthalpy           new  =   -8165.8578871052 Ry

     CASE: enthalpy          _new < enthalpy          _old

     new trust radius        =       0.0112323798 bohr
     new conv_thr            =       0.0000000010 Ry

     new unit-cell volume =   6243.15565 a.u.^3 (   925.14022 Ang^3 )
     density =      5.17519 g/cm^3

CELL_PARAMETERS (angstrom)
   8.383469585   0.000000000   0.000000000
   0.000000000   8.920909086   0.000000000
   0.000000000   0.000000000  12.370141150

ATOMIC_POSITIONS (crystal)
Cs               0.4666516821        0.4171682759        0.2500000000
Cs               0.5333483179        0.5828317241        0.7500000000
Cs              -0.0333483179        0.0828317241        0.7500000000
Cs               1.0333483179        0.9171682759        0.2500000000
Pb               0.5000000000        0.0000000000       -0.0000000000
Pb               0.5000000000       -0.0000000000        0.5000000000
Pb               0.0000000000        0.5000000000       -0.0000000000
Pb              -0.0000000000        0.5000000000        0.5000000000
I                0.5874741673        0.0076176695        0.2500000000
I                0.4125258327        0.9923823305        0.7500000000
I                0.0874741673        0.4923823305        0.7500000000
I                0.9125258327        0.5076176695        0.2500000000
I                0.6874600870        0.3053588336        0.9603208729
I                0.3125399130        0.6946411664        0.4603208729
I                0.1874600870        0.1946411664        0.0396791271
I                0.8125399130        0.8053588336        0.5396791271
I                0.3125399130        0.6946411664        0.0396791271
I                0.6874600870        0.3053588336        0.5396791271
I                0.8125399130        0.8053588336        0.9603208729
I                0.1874600870        0.1946411664        0.4603208729



     Writing config-only to output data dir ./tmp/cspbi3_gamma_s1.save/ :
     XML data file
     NEW-OLD atomic charge density approx. for the potential
     New effective cutoffs (rho, wfc):  502.02   62.71

     total cpu time spent up to now is    44050.3 secs

     Self-consistent Calculation

     iteration #  1     ecut=    60.00 Ry     beta= 0.50
     Davidson diagonalization with overlap
     ethr =  1.00E-06,  avg # of iterations =  3.0

     Threshold (ethr) on eigenvalues was too large:
     Diagonalizing with lowered threshold

     Davidson diagonalization with overlap
     ethr =  1.71E-08,  avg # of iterations =  4.2

     total cpu time spent up to now is    44304.2 secs

     total energy              =   -8165.85792461 Ry
     estimated scf accuracy    <       0.00003620 Ry

     iteration #  2     ecut=    60.00 Ry     beta= 0.50
     Davidson diagonalization with overlap
     ethr =  2.06E-08,  avg # of iterations =  4.0

     total cpu time spent up to now is    44437.5 secs

     total energy              =   -8165.85794050 Ry
     estimated scf accuracy    <       0.00000392 Ry

     iteration #  3     ecut=    60.00 Ry     beta= 0.50
     Davidson diagonalization with overlap
     ethr =  2.23E-09,  avg # of iterations =  2.5

     total cpu time spent up to now is    44534.9 secs

     total energy              =   -8165.85794279 Ry
     estimated scf accuracy    <       0.00000168 Ry

     iteration #  4     ecut=    60.00 Ry     beta= 0.50
     Davidson diagonalization with overlap
     ethr =  9.55E-10,  avg # of iterations =  5.0

     total cpu time spent up to now is    44659.6 secs

     total energy              =   -8165.85794353 Ry
     estimated scf accuracy    <       0.00000216 Ry

     iteration #  5     ecut=    60.00 Ry     beta= 0.50
     Davidson diagonalization with overlap
     ethr =  9.55E-10,  avg # of iterations =  1.2

     total cpu time spent up to now is    44742.4 secs

     total energy              =   -8165.85794410 Ry
     estimated scf accuracy    <       0.00000370 Ry

     iteration #  6     ecut=    60.00 Ry     beta= 0.50
     Davidson diagonalization with overlap
     ethr =  9.55E-10,  avg # of iterations =  3.0

     total cpu time spent up to now is    44841.1 secs

     total energy              =   -8165.85794430 Ry
     estimated scf accuracy    <       0.00000002 Ry

     iteration #  7     ecut=    60.00 Ry     beta= 0.50
     Davidson diagonalization with overlap
     ethr =  1.25E-11,  avg # of iterations =  6.0

     total cpu time spent up to now is    45028.3 secs

     total energy              =   -8165.85794433 Ry
     estimated scf accuracy    <          9.1E-09 Ry

     iteration #  8     ecut=    60.00 Ry     beta= 0.50
     Davidson diagonalization with overlap
     ethr =  5.17E-12,  avg # of iterations =  4.9

     total cpu time spent up to now is    45146.4 secs

     total energy              =   -8165.85794433 Ry
     estimated scf accuracy    <          2.7E-09 Ry

     iteration #  9     ecut=    60.00 Ry     beta= 0.50
     Davidson diagonalization with overlap
     ethr =  1.53E-12,  avg # of iterations =  4.0

     total cpu time spent up to now is    45254.4 secs

     total energy              =   -8165.85794433 Ry
     estimated scf accuracy    <          1.9E-09 Ry

     iteration # 10     ecut=    60.00 Ry     beta= 0.50
     Davidson diagonalization with overlap
     ethr =  1.06E-12,  avg # of iterations =  3.6

     total cpu time spent up to now is    45350.6 secs

     End of self-consistent calculation

          k = 0.0000 0.0000 0.0000 ( 50101 PWs)   bands (ev):

   -17.2686 -17.2679 -17.2663 -17.2659 -13.1066 -13.1045 -13.1041 -13.0992
   -13.0932 -13.0859 -13.0832 -13.0831 -13.0516 -13.0513 -13.0510 -13.0507
   -13.0487 -13.0485 -13.0481 -13.0479 -13.0428 -13.0425 -13.0420 -13.0418
    -8.7834  -8.6025  -8.3152  -8.2972  -8.2763  -8.2733  -8.2502  -8.2472
    -8.2393  -8.0639  -8.0505  -8.0476  -4.9845  -4.4876  -4.1401  -4.1359
    -4.1309  -4.1297  -4.1265  -4.1184  -4.1177  -4.1121  -4.1020  -4.0812
    -4.0684  -4.0619  -3.9172  -3.4815  -0.0088   0.0189   0.0402   0.1623
     0.1822   0.2986   1.0928   1.3861   1.3917   1.4267   1.4447   1.4914
     1.7296   1.8935   1.9152   1.9342   2.0083   2.0142   2.0309   2.0486
     2.0606   2.0788   2.0972   2.0975   2.1526   2.3450   2.3732   2.4092
     2.4338   2.4388   2.4543   2.4881   2.6715   2.6895   2.9636   3.4049

          k = 0.0000 0.0000-0.3467 ( 50118 PWs)   bands (ev):

   -17.2683 -17.2683 -17.2661 -17.2661 -13.1042 -13.1042 -13.0999 -13.0999
   -13.0927 -13.0927 -13.0832 -13.0832 -13.0513 -13.0513 -13.0510 -13.0510
   -13.0486 -13.0486 -13.0480 -13.0480 -13.0426 -13.0426 -13.0419 -13.0419
    -8.7115  -8.7115  -8.2870  -8.2870  -8.2827  -8.2827  -8.2483  -8.2483
    -8.1381  -8.1381  -8.0566  -8.0566  -4.7466  -4.7466  -4.1391  -4.1391
    -4.1378  -4.1378  -4.1187  -4.1187  -4.0876  -4.0876  -4.0831  -4.0831
    -4.0751  -4.0751  -3.7576  -3.7576   0.0658   0.0658   0.1052   0.1052
     0.7631   0.7631   1.0099   1.0099   1.2463   1.2463   1.5036   1.5036
     1.5946   1.5946   1.8568   1.8568   1.9626   1.9626   2.0510   2.0510
     2.1219   2.1219   2.1315   2.1315   2.2888   2.2888   2.3414   2.3414
     2.3803   2.3803   2.4280   2.4280   2.6228   2.6228   3.0402   3.0402

          k = 0.0000 0.3205 0.0000 ( 50121 PWs)   bands (ev):

   -17.2680 -17.2674 -17.2669 -17.2664 -13.1049 -13.1021 -13.0990 -13.0982
   -13.0919 -13.0884 -13.0879 -13.0875 -13.0515 -13.0514 -13.0510 -13.0508
   -13.0486 -13.0484 -13.0483 -13.0481 -13.0426 -13.0423 -13.0422 -13.0420
    -8.7147  -8.5315  -8.5301  -8.3672  -8.2650  -8.2558  -8.2093  -8.1928
    -8.1366  -8.1138  -8.0981  -8.0627  -4.7620  -4.3182  -4.3146  -4.1477
    -4.1371  -4.1237  -4.1221  -4.1101  -4.0957  -4.0902  -4.0890  -4.0880
    -4.0858  -4.0365  -4.0273  -3.7543   0.0801   0.1919   0.3233   0.4859
     0.4898   0.5573   1.0724   1.1323   1.2647   1.2923   1.3284   1.3455
     1.5222   1.6152   1.7084   1.7911   1.9116   1.9949   2.0080   2.0319
     2.0663   2.0738   2.1582   2.1694   2.1817   2.2969   2.3154   2.3172
     2.3690   2.3702   2.4382   2.5046   2.6228   2.7003   2.7613   2.9973

          k = 0.0000 0.3205-0.3467 ( 50184 PWs)   bands (ev):

   -17.2677 -17.2677 -17.2666 -17.2666 -13.0993 -13.0993 -13.0982 -13.0982
   -13.0941 -13.0941 -13.0883 -13.0883 -13.0513 -13.0513 -13.0511 -13.0511
   -13.0485 -13.0485 -13.0482 -13.0482 -13.0424 -13.0424 -13.0421 -13.0421
    -8.6428  -8.6428  -8.4700  -8.4700  -8.2031  -8.2031  -8.1760  -8.1760
    -8.1411  -8.1411  -8.1056  -8.1056  -4.5425  -4.5425  -4.1592  -4.1592
    -4.1295  -4.1295  -4.1288  -4.1288  -4.1066  -4.1066  -4.0888  -4.0888
    -4.0678  -4.0678  -3.9728  -3.9728   0.3962   0.3962   0.4685   0.4685
     0.8494   0.8494   0.8895   0.8895   1.1610   1.1610   1.2235   1.2235
     1.5855   1.5855   1.7337   1.7337   1.8414   1.8414   1.8610   1.8610
     1.9977   1.9977   2.0426   2.0426   2.3523   2.3523   2.3573   2.3573
     2.4306   2.4306   2.4314   2.4314   2.6611   2.6611   2.6974   2.6974

          k = 0.3410 0.0000 0.0000 ( 50214 PWs)   bands (ev):

   -17.2682 -17.2677 -17.2665 -17.2662 -13.1049 -13.1021 -13.0990 -13.0982
   -13.0919 -13.0884 -13.0879 -13.0875 -13.0515 -13.0514 -13.0510 -13.0508
   -13.0486 -13.0484 -13.0483 -13.0481 -13.0426 -13.0423 -13.0422 -13.0420
    -8.7089  -8.5228  -8.5153  -8.3431  -8.2659  -8.2593  -8.2396  -8.2187
    -8.1377  -8.1133  -8.1071  -8.0620  -4.7581  -4.3023  -4.2976  -4.1397
    -4.1342  -4.1200  -4.1198  -4.1165  -4.1087  -4.0866  -4.0852  -4.0803
    -4.0734  -4.0451  -4.0272  -3.7629   0.0808   0.1991   0.2918   0.4469
     0.4918   0.6437   0.9716   1.1776   1.2653   1.2791   1.3316   1.4724
     1.5103   1.6208   1.7587   1.7660   1.9589   1.9868   2.0334   2.0340
     2.1039   2.1052   2.1599   2.1680   2.1984   2.2391   2.2757   2.3336
     2.3358   2.3955   2.4263   2.4897   2.5682   2.5742   2.7018   2.9008

          k = 0.3410 0.0000-0.3467 ( 50200 PWs)   bands (ev):

   -17.2679 -17.2679 -17.2664 -17.2664 -13.0993 -13.0993 -13.0982 -13.0982
   -13.0941 -13.0941 -13.0883 -13.0883 -13.0513 -13.0513 -13.0511 -13.0511
   -13.0485 -13.0485 -13.0482 -13.0482 -13.0425 -13.0425 -13.0421 -13.0421
    -8.6370  -8.6370  -8.4530  -8.4530  -8.2317  -8.2317  -8.1708  -8.1708
    -8.1423  -8.1423  -8.1119  -8.1119  -4.5351  -4.5351  -4.1481  -4.1481
    -4.1406  -4.1406  -4.1125  -4.1125  -4.0876  -4.0876  -4.0785  -4.0785
    -4.0755  -4.0755  -3.9956  -3.9956   0.3609   0.3609   0.5179   0.5179
     0.7841   0.7841   0.9184   0.9184   1.1060   1.1060   1.2744   1.2744
     1.6663   1.6663   1.7179   1.7179   1.8848   1.8848   1.9477   1.9477
     2.0119   2.0119   2.1016   2.1016   2.2961   2.2961   2.3542   2.3542
     2.3850   2.3850   2.4279   2.4279   2.5276   2.5276   2.5869   2.5869

          k = 0.3410 0.3205 0.0000 ( 50152 PWs)   bands (ev):

   -17.2678 -17.2674 -17.2669 -17.2666 -13.1060 -13.1040 -13.0989 -13.0948
   -13.0941 -13.0895 -13.0876 -13.0850 -13.0515 -13.0514 -13.0509 -13.0508
   -13.0485 -13.0483 -13.0483 -13.0481 -13.0425 -13.0423 -13.0422 -13.0420
    -8.6539  -8.5441  -8.4547  -8.3078  -8.2943  -8.2825  -8.2675  -8.2560
    -8.2097  -8.1686  -8.0566  -8.0297  -4.6229  -4.3955  -4.2186  -4.1298
    -4.1274  -4.1182  -4.1148  -4.1086  -4.1027  -4.0999  -4.0879  -4.0833
    -4.0820  -4.0583  -3.9804  -3.8383   0.0969   0.1229   0.1537   0.2659
     0.4862   0.6486   1.0043   1.2011   1.2135   1.2215   1.3116   1.6033
     1.6035   1.6941   1.8106   1.9193   1.9621   2.0073   2.0205   2.0206
     2.0534   2.1101   2.1655   2.1787   2.2106   2.2325   2.2488   2.2767
     2.2882   2.3522   2.3774   2.4333   2.6010   2.6883   2.7696   2.9686

          k = 0.3410 0.3205-0.3467 ( 50168 PWs)   bands (ev):

   -17.2675 -17.2675 -17.2668 -17.2668 -13.1014 -13.1014 -13.0985 -13.0985
   -13.0919 -13.0919 -13.0882 -13.0882 -13.0512 -13.0512 -13.0511 -13.0511
   -13.0484 -13.0484 -13.0482 -13.0482 -13.0424 -13.0424 -13.0422 -13.0422
    -8.5787  -8.5787  -8.4679  -8.4679  -8.2876  -8.2876  -8.2157  -8.2157
    -8.1154  -8.1154  -8.0966  -8.0966  -4.4167  -4.4167  -4.2172  -4.2172
    -4.1250  -4.1250  -4.1120  -4.1120  -4.0979  -4.0979  -4.0780  -4.0780
    -4.0629  -4.0629  -4.0194  -4.0194   0.1850   0.1850   0.5432   0.5432
     0.7716   0.7716   0.9106   0.9106   1.0941   1.0941   1.3047   1.3047
     1.6188   1.6188   1.7128   1.7128   1.9089   1.9089   1.9888   1.9888
     2.0835   2.0835   2.1930   2.1930   2.2560   2.2560   2.3190   2.3190
     2.3492   2.3492   2.4265   2.4265   2.5539   2.5539   2.6704   2.6704

     highest occupied level (ev):     3.4049

!    total energy              =   -8165.85794433 Ry
     estimated scf accuracy    <          7.8E-11 Ry

     The total energy is the sum of the following terms:
     one-electron contribution =    -325.05204599 Ry
     hartree contribution      =     251.23569646 Ry
     xc contribution           =    -792.77173020 Ry
     ewald contribution        =    -649.65116759 Ry
     one-center paw contrib.   =   -6649.61869701 Ry

     convergence has been achieved in  10 iterations

     Forces acting on atoms (cartesian axes, Ry/au):

     atom    1 type  1   force =     0.00009955   -0.00012607    0.00000000
     atom    2 type  1   force =    -0.00009955    0.00012607    0.00000000
     atom    3 type  1   force =     0.00009955    0.00012607    0.00000000
     atom    4 type  1   force =    -0.00009955   -0.00012607    0.00000000
     atom    5 type  2   force =     0.00000000    0.00000000   -0.00000000
     atom    6 type  2   force =    -0.00000000    0.00000000   -0.00000000
     atom    7 type  2   force =     0.00000000    0.00000000    0.00000000
     atom    8 type  2   force =     0.00000000    0.00000000   -0.00000000
     atom    9 type  3   force =    -0.00062828   -0.00016301    0.00000000
     atom   10 type  3   force =     0.00062828    0.00016301    0.00000000
     atom   11 type  3   force =    -0.00062828    0.00016301   -0.00000000
     atom   12 type  3   force =     0.00062828   -0.00016301    0.00000000
     atom   13 type  3   force =     0.00026285    0.00039968   -0.00029646
     atom   14 type  3   force =    -0.00026285   -0.00039968   -0.00029646
     atom   15 type  3   force =     0.00026285   -0.00039968    0.00029646
     atom   16 type  3   force =    -0.00026285    0.00039968    0.00029646
     atom   17 type  3   force =    -0.00026285   -0.00039968    0.00029646
     atom   18 type  3   force =     0.00026285    0.00039968    0.00029646
     atom   19 type  3   force =    -0.00026285    0.00039968   -0.00029646
     atom   20 type  3   force =     0.00026285   -0.00039968   -0.00029646

     Total force =     0.002079     Total SCF correction =     0.000003


     Computing stress (Cartesian axis) and pressure

          total   stress  (Ry/bohr**3)                   (kbar)     P=        0.03
   0.00000061   0.00000000   0.00000000            0.09        0.00        0.00
   0.00000000   0.00000434   0.00000000            0.00        0.64        0.00
   0.00000000   0.00000000  -0.00000442            0.00        0.00       -0.65

     Energy error            =      5.7E-05 Ry
     Gradient error          =      6.3E-04 Ry/Bohr
     Cell gradient error     =      6.5E-01 kbar

     number of scf cycles    =  34
     number of bfgs steps    =  33

     enthalpy           old  =   -8165.8578871052 Ry
     enthalpy           new  =   -8165.8579443275 Ry

     CASE: enthalpy          _new < enthalpy          _old

     new trust radius        =       0.0168492534 bohr
     new conv_thr            =       0.0000000010 Ry

     new unit-cell volume =   6236.01278 a.u.^3 (   924.08175 Ang^3 )
     density =      5.18112 g/cm^3

CELL_PARAMETERS (angstrom)
   8.378220086   0.000000000   0.000000000
   0.000000000   8.925802599   0.000000000
   0.000000000   0.000000000  12.356951804

ATOMIC_POSITIONS (crystal)
Cs               0.4665148270        0.4168912962        0.2500000000
Cs               0.5334851730        0.5831087038        0.7500000000
Cs              -0.0334851730        0.0831087038        0.7500000000
Cs               1.0334851730        0.9168912962        0.2500000000
Pb               0.5000000000        0.0000000000       -0.0000000000
Pb               0.5000000000       -0.0000000000        0.5000000000
Pb               0.0000000000        0.5000000000       -0.0000000000
Pb              -0.0000000000        0.5000000000        0.5000000000
I                0.5868047701        0.0075380159        0.2500000000
I                0.4131952299        0.9924619841        0.7500000000
I                0.0868047701        0.4924619841        0.7500000000
I                0.9131952299        0.5075380159        0.2500000000
I                0.6875075020        0.3053363627        0.9599129884
I                0.3124924980        0.6946636373        0.4599129884
I                0.1875075020        0.1946636373        0.0400870116
I                0.8124924980        0.8053363627        0.5400870116
I                0.3124924980        0.6946636373        0.0400870116
I                0.6875075020        0.3053363627        0.5400870116
I                0.8124924980        0.8053363627        0.9599129884
I                0.1875075020        0.1946636373        0.4599129884



     Writing config-only to output data dir ./tmp/cspbi3_gamma_s1.save/ :
     XML data file
     NEW-OLD atomic charge density approx. for the potential
     New effective cutoffs (rho, wfc):  502.66   62.79

     total cpu time spent up to now is    45488.6 secs

     Self-consistent Calculation

     iteration #  1     ecut=    60.00 Ry     beta= 0.50
     Davidson diagonalization with overlap
     ethr =  1.00E-06,  avg # of iterations =  3.4

     Threshold (ethr) on eigenvalues was too large:
     Diagonalizing with lowered threshold

     Davidson diagonalization with overlap
     ethr =  1.34E-08,  avg # of iterations =  5.1

     total cpu time spent up to now is    45807.5 secs

     total energy              =   -8165.85798393 Ry
     estimated scf accuracy    <       0.00004196 Ry

     iteration #  2     ecut=    60.00 Ry     beta= 0.50
     Davidson diagonalization with overlap
     ethr =  2.38E-08,  avg # of iterations =  5.5

     total cpu time spent up to now is    45949.1 secs

     total energy              =   -8165.85800215 Ry
     estimated scf accuracy    <       0.00000457 Ry

     iteration #  3     ecut=    60.00 Ry     beta= 0.50
     Davidson diagonalization with overlap
     ethr =  2.60E-09,  avg # of iterations =  5.1

     total cpu time spent up to now is    46059.2 secs

     total energy              =   -8165.85800506 Ry
     estimated scf accuracy    <       0.00000300 Ry

     iteration #  4     ecut=    60.00 Ry     beta= 0.50
     Davidson diagonalization with overlap
     ethr =  1.70E-09,  avg # of iterations =  1.1

     total cpu time spent up to now is    46138.5 secs

     total energy              =   -8165.85800629 Ry
     estimated scf accuracy    <       0.00000155 Ry

     iteration #  5     ecut=    60.00 Ry     beta= 0.50
     Davidson diagonalization with overlap
     ethr =  8.83E-10,  avg # of iterations =  4.2

     total cpu time spent up to now is    46248.2 secs

     total energy              =   -8165.85800652 Ry
     estimated scf accuracy    <       0.00000006 Ry

     iteration #  6     ecut=    60.00 Ry     beta= 0.50
     Davidson diagonalization with overlap
     ethr =  3.31E-11,  avg # of iterations =  7.1

     total cpu time spent up to now is    46418.4 secs

     total energy              =   -8165.85800660 Ry
     estimated scf accuracy    <       0.00000007 Ry

     iteration #  7     ecut=    60.00 Ry     beta= 0.50
     Davidson diagonalization with overlap
     ethr =  3.31E-11,  avg # of iterations =  3.1

     total cpu time spent up to now is    46512.4 secs

     total energy              =   -8165.85800661 Ry
     estimated scf accuracy    <          1.0E-09 Ry

     iteration #  8     ecut=    60.00 Ry     beta= 0.50
     Davidson diagonalization with overlap
     ethr =  5.82E-13,  avg # of iterations =  5.4

     total cpu time spent up to now is    46676.3 secs

     total energy              =   -8165.85800661 Ry
     estimated scf accuracy    <          1.1E-09 Ry

     iteration #  9     ecut=    60.00 Ry     beta= 0.50
     Davidson diagonalization with overlap
     ethr =  5.82E-13,  avg # of iterations =  2.0

     total cpu time spent up to now is    46765.3 secs

     End of self-consistent calculation

          k = 0.0000 0.0000 0.0000 ( 50101 PWs)   bands (ev):

   -17.2562 -17.2555 -17.2538 -17.2534 -13.0963 -13.0933 -13.0927 -13.0888
   -13.0826 -13.0752 -13.0720 -13.0719 -13.0404 -13.0401 -13.0398 -13.0395
   -13.0376 -13.0374 -13.0369 -13.0367 -13.0315 -13.0312 -13.0308 -13.0306
    -8.7772  -8.5925  -8.3127  -8.2882  -8.2697  -8.2637  -8.2471  -8.2408
    -8.2294  -8.0549  -8.0409  -8.0399  -4.9777  -4.4731  -4.1281  -4.1241
    -4.1200  -4.1178  -4.1147  -4.1095  -4.1057  -4.1006  -4.0906  -4.0692
    -4.0566  -4.0496  -3.9097  -3.4697  -0.0057   0.0277   0.0489   0.1761
     0.1894   0.2918   1.1021   1.3956   1.4038   1.4341   1.4493   1.4985
     1.7348   1.9065   1.9268   1.9363   2.0171   2.0226   2.0362   2.0585
     2.0670   2.0830   2.1054   2.1061   2.1628   2.3549   2.3808   2.4183
     2.4440   2.4466   2.4650   2.4965   2.6852   2.6990   2.9698   3.4186

          k = 0.0000 0.0000-0.3470 ( 50118 PWs)   bands (ev):

   -17.2558 -17.2558 -17.2536 -17.2536 -13.0929 -13.0929 -13.0894 -13.0894
   -13.0822 -13.0822 -13.0719 -13.0719 -13.0401 -13.0401 -13.0398 -13.0398
   -13.0375 -13.0375 -13.0368 -13.0368 -13.0314 -13.0314 -13.0307 -13.0307
    -8.7043  -8.7043  -8.2819  -8.2819  -8.2758  -8.2758  -8.2384  -8.2384
    -8.1319  -8.1319  -8.0472  -8.0472  -4.7363  -4.7363  -4.1271  -4.1271
    -4.1263  -4.1263  -4.1071  -4.1071  -4.0761  -4.0761  -4.0710  -4.0710
    -4.0630  -4.0630  -3.7504  -3.7504   0.0757   0.0757   0.1151   0.1151
     0.7711   0.7711   1.0138   1.0138   1.2560   1.2560   1.5120   1.5120
     1.6005   1.6005   1.8635   1.8635   1.9670   1.9670   2.0585   2.0585
     2.1279   2.1279   2.1391   2.1391   2.2993   2.2993   2.3503   2.3503
     2.3887   2.3887   2.4378   2.4378   2.6332   2.6332   3.0466   3.0466

          k = 0.0000 0.3203 0.0000 ( 50121 PWs)   bands (ev):

   -17.2556 -17.2549 -17.2544 -17.2539 -13.0946 -13.0917 -13.0877 -13.0870
   -13.0811 -13.0771 -13.0769 -13.0767 -13.0403 -13.0402 -13.0398 -13.0396
   -13.0374 -13.0372 -13.0371 -13.0369 -13.0314 -13.0311 -13.0310 -13.0307
    -8.7088  -8.5261  -8.5203  -8.3575  -8.2613  -8.2527  -8.2002  -8.1829
    -8.1298  -8.1046  -8.0883  -8.0553  -4.7557  -4.3121  -4.3012  -4.1355
    -4.1253  -4.1125  -4.1100  -4.0979  -4.0843  -4.0784  -4.0776  -4.0762
    -4.0742  -4.0252  -4.0149  -3.7418   0.0794   0.1915   0.3315   0.4932
     0.4980   0.5665   1.0790   1.1386   1.2741   1.2986   1.3359   1.3547
     1.5269   1.6235   1.7174   1.7956   1.9206   2.0067   2.0180   2.0404
     2.0767   2.0846   2.1653   2.1776   2.1905   2.3062   2.3231   2.3256
     2.3775   2.3800   2.4486   2.5136   2.6311   2.7092   2.7764   3.0145

          k = 0.0000 0.3203-0.3470 ( 50184 PWs)   bands (ev):

   -17.2553 -17.2553 -17.2542 -17.2542 -13.0881 -13.0881 -13.0877 -13.0877
   -13.0836 -13.0836 -13.0770 -13.0770 -13.0401 -13.0401 -13.0399 -13.0399
   -13.0373 -13.0373 -13.0370 -13.0370 -13.0312 -13.0312 -13.0309 -13.0309
    -8.6359  -8.6359  -8.4637  -8.4637  -8.1933  -8.1933  -8.1698  -8.1698
    -8.1349  -8.1349  -8.0962  -8.0962  -4.5330  -4.5330  -4.1486  -4.1486
    -4.1175  -4.1175  -4.1171  -4.1171  -4.0950  -4.0950  -4.0771  -4.0771
    -4.0561  -4.0561  -3.9632  -3.9632   0.4057   0.4057   0.4760   0.4760
     0.8571   0.8571   0.8942   0.8942   1.1693   1.1693   1.2309   1.2309
     1.5938   1.5938   1.7405   1.7405   1.8456   1.8456   1.8666   1.8666
     2.0085   2.0085   2.0512   2.0512   2.3628   2.3628   2.3675   2.3675
     2.4392   2.4392   2.4396   2.4396   2.6708   2.6708   2.7066   2.7066

          k = 0.3412 0.0000 0.0000 ( 50214 PWs)   bands (ev):

   -17.2557 -17.2553 -17.2541 -17.2537 -13.0946 -13.0917 -13.0877 -13.0870
   -13.0811 -13.0771 -13.0769 -13.0767 -13.0403 -13.0402 -13.0398 -13.0396
   -13.0374 -13.0372 -13.0371 -13.0369 -13.0314 -13.0311 -13.0310 -13.0308
    -8.7030  -8.5128  -8.5098  -8.3331  -8.2627  -8.2558  -8.2311  -8.2092
    -8.1300  -8.1048  -8.0975  -8.0544  -4.7519  -4.2920  -4.2888  -4.1278
    -4.1230  -4.1086  -4.1077  -4.1042  -4.0969  -4.0746  -4.0736  -4.0686
    -4.0617  -4.0325  -4.0155  -3.7503   0.0800   0.1972   0.2999   0.4573
     0.4991   0.6527   0.9769   1.1838   1.2744   1.2865   1.3369   1.4811
     1.5165   1.6289   1.7694   1.7738   1.9686   1.9980   2.0435   2.0443
     2.1160   2.1161   2.1717   2.1765   2.2060   2.2473   2.2808   2.3415
     2.3456   2.4039   2.4327   2.4985   2.5773   2.5832   2.7149   2.9159

          k = 0.3412 0.0000-0.3470 ( 50200 PWs)   bands (ev):

   -17.2555 -17.2555 -17.2539 -17.2539 -13.0881 -13.0881 -13.0877 -13.0877
   -13.0835 -13.0835 -13.0770 -13.0770 -13.0401 -13.0401 -13.0399 -13.0399
   -13.0373 -13.0373 -13.0370 -13.0370 -13.0312 -13.0312 -13.0309 -13.0309
    -8.6300  -8.6300  -8.4468  -8.4468  -8.2225  -8.2225  -8.1643  -8.1643
    -8.1358  -8.1358  -8.1026  -8.1026  -4.5256  -4.5256  -4.1371  -4.1371
    -4.1292  -4.1292  -4.1006  -4.1006  -4.0759  -4.0759  -4.0669  -4.0669
    -4.0637  -4.0637  -3.9859  -3.9859   0.3701   0.3701   0.5256   0.5256
     0.7916   0.7916   0.9229   0.9229   1.1128   1.1128   1.2816   1.2816
     1.6751   1.6751   1.7260   1.7260   1.8952   1.8952   1.9534   1.9534
     2.0205   2.0205   2.1110   2.1110   2.3039   2.3039   2.3614   2.3614
     2.3942   2.3942   2.4375   2.4375   2.5369   2.5369   2.5951   2.5951

          k = 0.3412 0.3203 0.0000 ( 50152 PWs)   bands (ev):

   -17.2553 -17.2549 -17.2544 -17.2541 -13.0956 -13.0935 -13.0877 -13.0838
   -13.0830 -13.0783 -13.0769 -13.0742 -13.0403 -13.0402 -13.0397 -13.0396
   -13.0373 -13.0372 -13.0372 -13.0370 -13.0313 -13.0311 -13.0310 -13.0308
    -8.6484  -8.5393  -8.4448  -8.2981  -8.2860  -8.2726  -8.2641  -8.2518
    -8.2009  -8.1589  -8.0489  -8.0218  -4.6170  -4.3899  -4.2059  -4.1182
    -4.1157  -4.1062  -4.1034  -4.0964  -4.0911  -4.0883  -4.0760  -4.0715
    -4.0701  -4.0464  -3.9673  -3.8254   0.0958   0.1312   0.1508   0.2775
     0.4931   0.6590   1.0113   1.2097   1.2191   1.2276   1.3183   1.6096
     1.6121   1.7005   1.8198   1.9301   1.9696   2.0173   2.0301   2.0324
     2.0604   2.1180   2.1739   2.1886   2.2187   2.2420   2.2570   2.2858
     2.2975   2.3610   2.3856   2.4420   2.6100   2.6977   2.7854   2.9844

          k = 0.3412 0.3203-0.3470 ( 50168 PWs)   bands (ev):

   -17.2551 -17.2551 -17.2543 -17.2543 -13.0905 -13.0905 -13.0878 -13.0878
   -13.0810 -13.0810 -13.0771 -13.0771 -13.0400 -13.0400 -13.0399 -13.0399
   -13.0372 -13.0372 -13.0371 -13.0371 -13.0311 -13.0311 -13.0310 -13.0310
    -8.5722  -8.5722  -8.4625  -8.4625  -8.2780  -8.2780  -8.2073  -8.2073
    -8.1082  -8.1082  -8.0889  -8.0889  -4.4076  -4.4076  -4.2079  -4.2079
    -4.1132  -4.1132  -4.1003  -4.1003  -4.0864  -4.0864  -4.0660  -4.0660
    -4.0510  -4.0510  -4.0085  -4.0085   0.1941   0.1941   0.5500   0.5500
     0.7794   0.7794   0.9172   0.9172   1.1016   1.1016   1.3114   1.3114
     1.6263   1.6263   1.7199   1.7199   1.9149   1.9149   1.9987   1.9987
     2.0909   2.0909   2.2016   2.2016   2.2643   2.2643   2.3293   2.3293
     2.3569   2.3569   2.4348   2.4348   2.5643   2.5643   2.6799   2.6799

     highest occupied level (ev):     3.4186

!    total energy              =   -8165.85800661 Ry
     estimated scf accuracy    <          6.0E-11 Ry

     The total energy is the sum of the following terms:
     one-electron contribution =    -324.76572534 Ry
     hartree contribution      =     251.15929837 Ry
     xc contribution           =    -792.77977781 Ry
     ewald contribution        =    -649.85274754 Ry
     one-center paw contrib.   =   -6649.61905428 Ry

     convergence has been achieved in   9 iterations

     Forces acting on atoms (cartesian axes, Ry/au):

     atom    1 type  1   force =     0.00023522   -0.00010973    0.00000000
     atom    2 type  1   force =    -0.00023522    0.00010973    0.00000000
     atom    3 type  1   force =     0.00023522    0.00010973    0.00000000
     atom    4 type  1   force =    -0.00023522   -0.00010973    0.00000000
     atom    5 type  2   force =    -0.00000000    0.00000000   -0.00000000
     atom    6 type  2   force =     0.00000000    0.00000000   -0.00000000
     atom    7 type  2   force =     0.00000000   -0.00000000    0.00000000
     atom    8 type  2   force =     0.00000000    0.00000000    0.00000000
     atom    9 type  3   force =    -0.00019353   -0.00018019    0.00000000
     atom   10 type  3   force =     0.00019353    0.00018019    0.00000000
     atom   11 type  3   force =    -0.00019353    0.00018019    0.00000000
     atom   12 type  3   force =     0.00019353   -0.00018019    0.00000000
     atom   13 type  3   force =     0.00016230    0.00027216   -0.00010943
     atom   14 type  3   force =    -0.00016230   -0.00027216   -0.00010943
     atom   15 type  3   force =     0.00016230   -0.00027216    0.00010943
     atom   16 type  3   force =    -0.00016230    0.00027216    0.00010943
     atom   17 type  3   force =    -0.00016230   -0.00027216    0.00010943
     atom   18 type  3   force =     0.00016230    0.00027216    0.00010943
     atom   19 type  3   force =    -0.00016230    0.00027216   -0.00010943
     atom   20 type  3   force =     0.00016230   -0.00027216   -0.00010943

     Total force =     0.001203     Total SCF correction =     0.000011


     Computing stress (Cartesian axis) and pressure

          total   stress  (Ry/bohr**3)                   (kbar)     P=        0.26
   0.00000118   0.00000000   0.00000000            0.17        0.00        0.00
   0.00000000   0.00000443   0.00000000            0.00        0.65        0.00
   0.00000000   0.00000000  -0.00000035            0.00        0.00       -0.05

     Energy error            =      6.2E-05 Ry
     Gradient error          =      2.7E-04 Ry/Bohr
     Cell gradient error     =      6.5E-01 kbar

     number of scf cycles    =  35
     number of bfgs steps    =  34

     enthalpy           old  =   -8165.8579443275 Ry
     enthalpy           new  =   -8165.8580066077 Ry

     CASE: enthalpy          _new < enthalpy          _old

     new trust radius        =       0.0118712544 bohr
     new conv_thr            =       0.0000000010 Ry

     new unit-cell volume =   6238.31127 a.u.^3 (   924.42236 Ang^3 )
     density =      5.17921 g/cm^3

CELL_PARAMETERS (angstrom)
   8.377755840   0.000000000   0.000000000
   0.000000000   8.932511639   0.000000000
   0.000000000   0.000000000  12.352906369

ATOMIC_POSITIONS (crystal)
Cs               0.4666242442        0.4169633822        0.2500000000
Cs               0.5333757558        0.5830366178        0.7500000000
Cs              -0.0333757558        0.0830366178        0.7500000000
Cs               1.0333757558        0.9169633822        0.2500000000
Pb               0.5000000000        0.0000000000       -0.0000000000
Pb               0.5000000000       -0.0000000000        0.5000000000
Pb               0.0000000000        0.5000000000       -0.0000000000
Pb              -0.0000000000        0.5000000000        0.5000000000
I                0.5863324472        0.0074257446        0.2500000000
I                0.4136675528        0.9925742554        0.7500000000
I                0.0863324472        0.4925742554        0.7500000000
I                0.9136675528        0.5074257446        0.2500000000
I                0.6875896891        0.3053841102        0.9596646978
I                0.3124103109        0.6946158898        0.4596646978
I                0.1875896891        0.1946158898        0.0403353022
I                0.8124103109        0.8053841102        0.5403353022
I                0.3124103109        0.6946158898        0.0403353022
I                0.6875896891        0.3053841102        0.5403353022
I                0.8124103109        0.8053841102        0.9596646978
I                0.1875896891        0.1946158898        0.4596646978



     Writing config-only to output data dir ./tmp/cspbi3_gamma_s1.save/ :
     XML data file
     NEW-OLD atomic charge density approx. for the potential
     New effective cutoffs (rho, wfc):  502.72   62.79

     total cpu time spent up to now is    46900.3 secs

     Self-consistent Calculation

     iteration #  1     ecut=    60.00 Ry     beta= 0.50
     Davidson diagonalization with overlap
     ethr =  1.00E-06,  avg # of iterations =  3.0

     Threshold (ethr) on eigenvalues was too large:
     Diagonalizing with lowered threshold

     Davidson diagonalization with overlap
     ethr =  2.96E-09,  avg # of iterations =  6.1

     total cpu time spent up to now is    47240.1 secs

     total energy              =   -8165.85802732 Ry
     estimated scf accuracy    <       0.00000804 Ry

     iteration #  2     ecut=    60.00 Ry     beta= 0.50
     Davidson diagonalization with overlap
     ethr =  4.57E-09,  avg # of iterations =  3.8

     total cpu time spent up to now is    47378.9 secs

     total energy              =   -8165.85803024 Ry
     estimated scf accuracy    <       0.00000076 Ry

     iteration #  3     ecut=    60.00 Ry     beta= 0.50
     Davidson diagonalization with overlap
     ethr =  4.34E-10,  avg # of iterations =  5.5

     total cpu time spent up to now is    47520.2 secs

     total energy              =   -8165.85803083 Ry
     estimated scf accuracy    <       0.00000057 Ry

     iteration #  4     ecut=    60.00 Ry     beta= 0.50
     Davidson diagonalization with overlap
     ethr =  3.22E-10,  avg # of iterations =  1.4

     total cpu time spent up to now is    47602.6 secs

     total energy              =   -8165.85803103 Ry
     estimated scf accuracy    <       0.00000026 Ry

     iteration #  5     ecut=    60.00 Ry     beta= 0.50
     Davidson diagonalization with overlap
     ethr =  1.49E-10,  avg # of iterations =  3.2

     total cpu time spent up to now is    47702.1 secs

     total energy              =   -8165.85803107 Ry
     estimated scf accuracy    <          2.7E-09 Ry

     iteration #  6     ecut=    60.00 Ry     beta= 0.50
     Davidson diagonalization with overlap
     ethr =  1.51E-12,  avg # of iterations =  8.5

     total cpu time spent up to now is    47923.0 secs

     total energy              =   -8165.85803109 Ry
     estimated scf accuracy    <          8.9E-09 Ry

     iteration #  7     ecut=    60.00 Ry     beta= 0.50
     Davidson diagonalization with overlap
     ethr =  1.51E-12,  avg # of iterations =  3.1

     total cpu time spent up to now is    48022.8 secs

     total energy              =   -8165.85803109 Ry
     estimated scf accuracy    <          1.2E-09 Ry

     iteration #  8     ecut=    60.00 Ry     beta= 0.50
     Davidson diagonalization with overlap
     ethr =  6.98E-13,  avg # of iterations =  4.0

     total cpu time spent up to now is    48132.2 secs

     End of self-consistent calculation

          k = 0.0000 0.0000 0.0000 ( 50101 PWs)   bands (ev):

   -17.2592 -17.2585 -17.2569 -17.2565 -13.1007 -13.0972 -13.0965 -13.0933
   -13.0869 -13.0797 -13.0759 -13.0758 -13.0447 -13.0444 -13.0441 -13.0438
   -13.0418 -13.0417 -13.0412 -13.0410 -13.0357 -13.0354 -13.0350 -13.0348
    -8.7794  -8.5925  -8.3188  -8.2898  -8.2737  -8.2650  -8.2529  -8.2437
    -8.2305  -8.0574  -8.0435  -8.0431  -4.9804  -4.4725  -4.1308  -4.1267
    -4.1231  -4.1206  -4.1175  -4.1142  -4.1083  -4.1037  -4.0939  -4.0721
    -4.0598  -4.0524  -3.9156  -3.4740  -0.0099   0.0278   0.0488   0.1791
     0.1882   0.2810   1.1016   1.3944   1.4042   1.4312   1.4447   1.4954
     1.7304   1.9069   1.9258   1.9291   2.0144   2.0199   2.0312   2.0561
     2.0636   2.0773   2.1029   2.1030   2.1604   2.3522   2.3762   2.4149
     2.4415   2.4420   2.4624   2.4932   2.6838   2.6951   2.9616   3.4139

          k = 0.0000 0.0000-0.3471 ( 50118 PWs)   bands (ev):

   -17.2589 -17.2589 -17.2567 -17.2567 -13.0967 -13.0967 -13.0938 -13.0938
   -13.0867 -13.0867 -13.0759 -13.0759 -13.0444 -13.0444 -13.0441 -13.0441
   -13.0417 -13.0417 -13.0411 -13.0411 -13.0356 -13.0356 -13.0349 -13.0349
    -8.7059  -8.7059  -8.2875  -8.2875  -8.2775  -8.2775  -8.2396  -8.2396
    -8.1360  -8.1360  -8.0496  -8.0496  -4.7375  -4.7375  -4.1299  -4.1299
    -4.1292  -4.1292  -4.1100  -4.1100  -4.0793  -4.0793  -4.0739  -4.0739
    -4.0660  -4.0660  -3.7567  -3.7567   0.0764   0.0764   0.1157   0.1157
     0.7689   0.7689   1.0090   1.0090   1.2551   1.2551   1.5095   1.5095
     1.5966   1.5966   1.8598   1.8598   1.9617   1.9617   2.0550   2.0550
     2.1234   2.1234   2.1356   2.1356   2.2974   2.2974   2.3470   2.3470
     2.3849   2.3849   2.4348   2.4348   2.6300   2.6300   3.0383   3.0383

          k = 0.0000 0.3201 0.0000 ( 50121 PWs)   bands (ev):

   -17.2586 -17.2580 -17.2575 -17.2570 -13.0991 -13.0961 -13.0916 -13.0909
   -13.0854 -13.0813 -13.0810 -13.0807 -13.0446 -13.0445 -13.0440 -13.0439
   -13.0417 -13.0415 -13.0413 -13.0412 -13.0356 -13.0353 -13.0352 -13.0350
    -8.7113  -8.5293  -8.5206  -8.3584  -8.2668  -8.2585  -8.2019  -8.1843
    -8.1336  -8.1068  -8.0903  -8.0590  -4.7594  -4.3174  -4.3018  -4.1381
    -4.1280  -4.1155  -4.1128  -4.1007  -4.0874  -4.0815  -4.0808  -4.0793
    -4.0776  -4.0286  -4.0176  -3.7446   0.0727   0.1848   0.3308   0.4907
     0.4971   0.5657   1.0765   1.1357   1.2731   1.2956   1.3338   1.3532
     1.5223   1.6205   1.7148   1.7901   1.9184   2.0062   2.0163   2.0376
     2.0747   2.0828   2.1613   2.1744   2.1879   2.3031   2.3177   2.3229
     2.3738   2.3767   2.4465   2.5100   2.6267   2.7050   2.7754   3.0138

          k = 0.0000 0.3201-0.3471 ( 50184 PWs)   bands (ev):

   -17.2583 -17.2583 -17.2572 -17.2572 -13.0922 -13.0922 -13.0920 -13.0920
   -13.0880 -13.0880 -13.0810 -13.0810 -13.0444 -13.0444 -13.0442 -13.0442
   -13.0416 -13.0416 -13.0412 -13.0412 -13.0354 -13.0354 -13.0351 -13.0351
    -8.6378  -8.6378  -8.4666  -8.4666  -8.1947  -8.1947  -8.1737  -8.1737
    -8.1390  -8.1390  -8.0984  -8.0984  -4.5352  -4.5352  -4.1519  -4.1519
    -4.1203  -4.1203  -4.1199  -4.1199  -4.0980  -4.0980  -4.0803  -4.0803
    -4.0594  -4.0594  -3.9675  -3.9675   0.4056   0.4056   0.4742   0.4742
     0.8545   0.8545   0.8901   0.8901   1.1678   1.1678   1.2284   1.2284
     1.5913   1.5913   1.7368   1.7368   1.8400   1.8400   1.8626   1.8626
     2.0069   2.0069   2.0480   2.0480   2.3609   2.3609   2.3650   2.3650
     2.4347   2.4347   2.4363   2.4363   2.6670   2.6670   2.7021   2.7021

          k = 0.3412 0.0000 0.0000 ( 50214 PWs)   bands (ev):

   -17.2588 -17.2583 -17.2571 -17.2568 -13.0991 -13.0961 -13.0916 -13.0909
   -13.0854 -13.0813 -13.0811 -13.0807 -13.0446 -13.0445 -13.0440 -13.0439
   -13.0417 -13.0415 -13.0413 -13.0412 -13.0356 -13.0353 -13.0352 -13.0350
    -8.7054  -8.5131  -8.5130  -8.3339  -8.2683  -8.2613  -8.2331  -8.2107
    -8.1334  -8.1072  -8.0995  -8.0580  -4.7556  -4.2978  -4.2895  -4.1306
    -4.1260  -4.1117  -4.1103  -4.1068  -4.0998  -4.0774  -4.0767  -4.0718
    -4.0650  -4.0349  -4.0188  -3.7529   0.0731   0.1895   0.2990   0.4577
     0.4971   0.6517   0.9729   1.1805   1.2723   1.2841   1.3331   1.4787
     1.5124   1.6269   1.7684   1.7703   1.9667   1.9971   2.0417   2.0432
     2.1144   2.1156   2.1706   2.1735   2.2025   2.2440   2.2755   2.3375
     2.3429   2.4003   2.4276   2.4949   2.5734   2.5788   2.7127   2.9137

          k = 0.3412 0.0000-0.3471 ( 50200 PWs)   bands (ev):

   -17.2585 -17.2585 -17.2570 -17.2570 -13.0922 -13.0922 -13.0920 -13.0920
   -13.0879 -13.0879 -13.0810 -13.0810 -13.0444 -13.0444 -13.0442 -13.0442
   -13.0416 -13.0416 -13.0412 -13.0412 -13.0354 -13.0354 -13.0351 -13.0351
    -8.6319  -8.6319  -8.4498  -8.4498  -8.2243  -8.2243  -8.1681  -8.1681
    -8.1396  -8.1396  -8.1047  -8.1047  -4.5278  -4.5278  -4.1404  -4.1404
    -4.1322  -4.1322  -4.1035  -4.1035  -4.0789  -4.0789  -4.0700  -4.0700
    -4.0669  -4.0669  -3.9899  -3.9899   0.3699   0.3699   0.5239   0.5239
     0.7892   0.7892   0.9186   0.9186   1.1094   1.1094   1.2788   1.2788
     1.6730   1.6730   1.7230   1.7230   1.8936   1.8936   1.9481   1.9481
     2.0187   2.0187   2.1086   2.1086   2.3006   2.3006   2.3571   2.3571
     2.3912   2.3912   2.4346   2.4346   2.5331   2.5331   2.5899   2.5899

          k = 0.3412 0.3201 0.0000 ( 50152 PWs)   bands (ev):

   -17.2584 -17.2580 -17.2575 -17.2572 -13.0999 -13.0980 -13.0917 -13.0878
   -13.0870 -13.0823 -13.0811 -13.0784 -13.0446 -13.0445 -13.0440 -13.0439
   -13.0416 -13.0414 -13.0414 -13.0412 -13.0355 -13.0353 -13.0352 -13.0350
    -8.6512  -8.5430  -8.4453  -8.2992  -8.2883  -8.2737  -8.2696  -8.2565
    -8.2029  -8.1606  -8.0524  -8.0252  -4.6214  -4.3953  -4.2075  -4.1209
    -4.1186  -4.1089  -4.1065  -4.0992  -4.0941  -4.0914  -4.0791  -4.0746
    -4.0733  -4.0495  -3.9696  -3.8278   0.0887   0.1306   0.1427   0.2791
     0.4909   0.6592   1.0086   1.2076   1.2155   1.2246   1.3155   1.6059
     1.6103   1.6966   1.8180   1.9285   1.9662   2.0152   2.0278   2.0321
     2.0568   2.1147   2.1704   2.1864   2.2155   2.2392   2.2539   2.2828
     2.2945   2.3576   2.3814   2.4380   2.6061   2.6936   2.7843   2.9823

          k = 0.3412 0.3201-0.3471 ( 50168 PWs)   bands (ev):

   -17.2581 -17.2581 -17.2574 -17.2574 -13.0947 -13.0947 -13.0921 -13.0921
   -13.0852 -13.0852 -13.0812 -13.0812 -13.0443 -13.0443 -13.0442 -13.0442
   -13.0415 -13.0415 -13.0413 -13.0413 -13.0353 -13.0353 -13.0352 -13.0352
    -8.5747  -8.5747  -8.4660  -8.4660  -8.2793  -8.2793  -8.2096  -8.2096
    -8.1118  -8.1118  -8.0921  -8.0921  -4.4105  -4.4105  -4.2116  -4.2116
    -4.1160  -4.1160  -4.1032  -4.1032  -4.0895  -4.0895  -4.0689  -4.0689
    -4.0540  -4.0540  -4.0122  -4.0122   0.1940   0.1940   0.5478   0.5478
     0.7775   0.7775   0.9141   0.9141   1.0991   1.0991   1.3086   1.3086
     1.6232   1.6232   1.7165   1.7165   1.9108   1.9108   1.9967   1.9967
     2.0873   2.0873   2.1985   2.1985   2.2607   2.2607   2.3271   2.3271
     2.3529   2.3529   2.4307   2.4307   2.5610   2.5610   2.6752   2.6752

     highest occupied level (ev):     3.4139

!    total energy              =   -8165.85803109 Ry
     estimated scf accuracy    <          3.3E-11 Ry

     The total energy is the sum of the following terms:
     one-electron contribution =    -324.90461118 Ry
     hartree contribution      =     251.20636174 Ry
     xc contribution           =    -792.77765875 Ry
     ewald contribution        =    -649.76316882 Ry
     one-center paw contrib.   =   -6649.61895408 Ry

     convergence has been achieved in   8 iterations

     Forces acting on atoms (cartesian axes, Ry/au):

     atom    1 type  1   force =     0.00029591   -0.00021258    0.00000000
     atom    2 type  1   force =    -0.00029591    0.00021258    0.00000000
     atom    3 type  1   force =     0.00029591    0.00021258    0.00000000
     atom    4 type  1   force =    -0.00029591   -0.00021258    0.00000000
     atom    5 type  2   force =     0.00000000    0.00000000   -0.00000000
     atom    6 type  2   force =     0.00000000    0.00000000    0.00000000
     atom    7 type  2   force =     0.00000000    0.00000000    0.00000000
     atom    8 type  2   force =     0.00000000   -0.00000000    0.00000000
     atom    9 type  3   force =     0.00000641   -0.00012223    0.00000000
     atom   10 type  3   force =    -0.00000641    0.00012223   -0.00000000
     atom   11 type  3   force =     0.00000641    0.00012223   -0.00000000
     atom   12 type  3   force =    -0.00000641   -0.00012223    0.00000000
     atom   13 type  3   force =     0.00006978    0.00005911    0.00003448
     atom   14 type  3   force =    -0.00006978   -0.00005911    0.00003448
     atom   15 type  3   force =     0.00006978   -0.00005911   -0.00003448
     atom   16 type  3   force =    -0.00006978    0.00005911   -0.00003448
     atom   17 type  3   force =    -0.00006978   -0.00005911   -0.00003448
     atom   18 type  3   force =     0.00006978    0.00005911   -0.00003448
     atom   19 type  3   force =    -0.00006978    0.00005911    0.00003448
     atom   20 type  3   force =     0.00006978   -0.00005911    0.00003448

     Total force =     0.000817     Total SCF correction =     0.000002


     Computing stress (Cartesian axis) and pressure

          total   stress  (Ry/bohr**3)                   (kbar)     P=        0.20
   0.00000050   0.00000000   0.00000000            0.07        0.00        0.00
   0.00000000   0.00000256   0.00000000            0.00        0.38        0.00
   0.00000000   0.00000000   0.00000094            0.00        0.00        0.14

     Energy error            =      2.4E-05 Ry
     Gradient error          =      3.0E-04 Ry/Bohr
     Cell gradient error     =      3.8E-01 kbar

     bfgs converged in  36 scf cycles and  35 bfgs steps
     (criteria: energy <  1.0E-04 Ry, force <  1.0E-03 Ry/Bohr, cell <  5.0E-01 kbar)

     End of BFGS Geometry Optimization

     Final enthalpy           =   -8165.8580310899 Ry

     File ./tmp/cspbi3_gamma_s1.bfgs deleted, as requested
Begin final coordinates
     new unit-cell volume =   6238.31127 a.u.^3 (   924.42236 Ang^3 )
     density =      5.17921 g/cm^3

CELL_PARAMETERS (angstrom)
   8.377755840   0.000000000   0.000000000
   0.000000000   8.932511639   0.000000000
   0.000000000   0.000000000  12.352906369

ATOMIC_POSITIONS (crystal)
Cs               0.4666242442        0.4169633822        0.2500000000
Cs               0.5333757558        0.5830366178        0.7500000000
Cs              -0.0333757558        0.0830366178        0.7500000000
Cs               1.0333757558        0.9169633822        0.2500000000
Pb               0.5000000000        0.0000000000       -0.0000000000
Pb               0.5000000000       -0.0000000000        0.5000000000
Pb               0.0000000000        0.5000000000       -0.0000000000
Pb              -0.0000000000        0.5000000000        0.5000000000
I                0.5863324472        0.0074257446        0.2500000000
I                0.4136675528        0.9925742554        0.7500000000
I                0.0863324472        0.4925742554        0.7500000000
I                0.9136675528        0.5074257446        0.2500000000
I                0.6875896891        0.3053841102        0.9596646978
I                0.3124103109        0.6946158898        0.4596646978
I                0.1875896891        0.1946158898        0.0403353022
I                0.8124103109        0.8053841102        0.5403353022
I                0.3124103109        0.6946158898        0.0403353022
I                0.6875896891        0.3053841102        0.5403353022
I                0.8124103109        0.8053841102        0.9596646978
I                0.1875896891        0.1946158898        0.4596646978
End final coordinates



     Writing config-only to output data dir ./tmp/cspbi3_gamma_s1.save/ :
     XML data file

     Final scf calculation at the relaxed structure.
     The G-vectors are recalculated for the final unit cell
     Results may differ from those at the preceding step.

     Parallelization info
     --------------------
     sticks:   dense  smooth     PW     G-vecs:    dense   smooth      PW
     Min        1700     849    225               184662    65267    8899
     Max        1702     850    226               184663    65270    8904
     Sum       10203    5097   1351              1107973   391607   53401

     Using Slab Decomposition



     bravais-lattice index     =            0
     lattice parameter (alat)  =      16.2074  a.u.
     unit-cell volume          =    6238.3113 (a.u.)^3
     number of atoms/cell      =           20
     number of atomic types    =            3
     number of electrons       =       176.00
     number of Kohn-Sham states=           88
     kinetic-energy cutoff     =      60.0000  Ry
     charge density cutoff     =     480.0000  Ry
     scf convergence threshold =      1.0E-09
     mixing beta               =       0.5000
     number of iterations used =            8  plain     mixing
     press convergence thresh. =      5.0E-01
     Exchange-correlation= SLA  PW   PSX  PSC
                           (   1   4  10   8   0   0   0)

     celldm(1)=  16.207425  celldm(2)=   0.000000  celldm(3)=   0.000000
     celldm(4)=   0.000000  celldm(5)=   0.000000  celldm(6)=   0.000000

     crystal axes: (cart. coord. in units of alat)
               a(1) = (   0.976816   0.000000   0.000000 )  
               a(2) = (   0.000000   1.041498   0.000000 )  
               a(3) = (   0.000000   0.000000   1.440303 )  

     reciprocal axes: (cart. coord. in units 2 pi/alat)
               b(1) = (  1.023735  0.000000  0.000000 )  
               b(2) = (  0.000000  0.960155  0.000000 )  
               b(3) = (  0.000000  0.000000  0.694298 )  


     PseudoPot. # 1 for Cs read from file:
     /home/duydao/pseudo_pbesol/cs_pbesol_v1.uspp.F.UPF
     MD5 check sum: ae4559e5c840913b791237f814e2d884
     Pseudo is Ultrasoft + core correction, Zval =  9.0
     Generated by new atomic code, or converted to UPF format
     Using radial grid of  905 points,  6 beta functions with: 
                l(1) =   0
                l(2) =   0
                l(3) =   1
                l(4) =   1
                l(5) =   2
                l(6) =   2
     Q(r) pseudized with  6 coefficients,  rinner =    1.500   1.500   1.500
                                                       1.500   1.500

     PseudoPot. # 2 for Pb read from file:
     /home/duydao/pseudo_pbesol/Pb.pbesol-dn-kjpaw_psl.0.2.2.UPF
     MD5 check sum: df0e0ac60519e244e20a4bf230ae894d
     Pseudo is Projector augmented-wave + core cor, Zval = 14.0
     Generated using "atomic" code by A. Dal Corso  v.6.0 svn rev. 13079
     Shape of augmentation charge: PSQ
     Using radial grid of 1281 points,  6 beta functions with: 
                l(1) =   0
                l(2) =   0
                l(3) =   1
                l(4) =   1
                l(5) =   2
                l(6) =   2
     Q(r) pseudized with 0 coefficients 


     PseudoPot. # 3 for I  read from file:
     /home/duydao/pseudo_pbesol/I.pbesol-n-kjpaw_psl.0.2.UPF
     MD5 check sum: cecf1a22a184a0b1ae701638a037a48d
     Pseudo is Projector augmented-wave + core cor, Zval =  7.0
     Generated using "atomic" code by A. Dal Corso  v.6.0 svn rev. 13079
     Shape of augmentation charge: PSQ
     Using radial grid of 1247 points,  4 beta functions with: 
                l(1) =   0
                l(2) =   0
                l(3) =   1
                l(4) =   1
     Q(r) pseudized with 0 coefficients 


     atomic species   valence    mass     pseudopotential
     Cs                9.00   132.90500     Cs( 1.00)
     Pb               14.00   207.20000     Pb( 1.00)
     I                 7.00   126.90400     I ( 1.00)

      8 Sym. Ops., with inversion, found ( 6 have fractional translation)



   Cartesian axes

     site n.     atom                  positions (alat units)
         1        Cs     tau(   1) = (   0.4558058   0.4342665   0.3600759  )
         2        Cs     tau(   2) = (   0.5210097   0.6072315   1.0802276  )
         3        Cs     tau(   3) = (  -0.0326020   0.0864825   1.0802276  )
         4        Cs     tau(   4) = (   1.0094175   0.9550155   0.3600759  )
         5        Pb     tau(   5) = (   0.4884078   0.0000000  -0.0000000  )
         6        Pb     tau(   6) = (   0.4884078  -0.0000000   0.7201517  )
         7        Pb     tau(   7) = (   0.0000000   0.5207490  -0.0000000  )
         8        Pb     tau(   8) = (  -0.0000000   0.5207490   0.7201517  )
         9        I      tau(   9) = (   0.5727386   0.0077339   0.3600759  )
        10        I      tau(  10) = (   0.4040769   1.0337641   1.0802276  )
        11        I      tau(  11) = (   0.0843309   0.5130151   1.0802276  )
        12        I      tau(  12) = (   0.8924846   0.5284829   0.3600759  )
        13        I      tau(  13) = (   0.6716483   0.3180569   1.3822084  )
        14        I      tau(  14) = (   0.3051672   0.7234411   0.6620566  )
        15        I      tau(  15) = (   0.1832405   0.2026921   0.0580951  )
        16        I      tau(  16) = (   0.7935750   0.8388059   0.7782468  )
        17        I      tau(  17) = (   0.3051672   0.7234411   0.0580951  )
        18        I      tau(  18) = (   0.6716483   0.3180569   0.7782468  )
        19        I      tau(  19) = (   0.7935750   0.8388059   1.3822084  )
        20        I      tau(  20) = (   0.1832405   0.2026921   0.6620566  )

     number of k points=     8
                       cart. coord. in units 2pi/alat
        k(    1) = (   0.0000000   0.0000000   0.0000000), wk =   0.1111111
        k(    2) = (   0.0000000   0.0000000  -0.3471491), wk =   0.1111111
        k(    3) = (   0.0000000   0.3200518   0.0000000), wk =   0.2222222
        k(    4) = (   0.0000000   0.3200518  -0.3471491), wk =   0.2222222
        k(    5) = (   0.3412449   0.0000000   0.0000000), wk =   0.2222222
        k(    6) = (   0.3412449   0.0000000  -0.3471491), wk =   0.2222222
        k(    7) = (   0.3412449   0.3200518   0.0000000), wk =   0.4444444
        k(    8) = (   0.3412449   0.3200518  -0.3471491), wk =   0.4444444

     Dense  grid:  1107973 G-vectors     FFT dimensions: ( 120, 120, 180)

     Smooth grid:   391607 G-vectors     FFT dimensions: (  80,  90, 120)

     Estimated max dynamical RAM per process >     881.54 MB

     Estimated total dynamical RAM >       5.17 GB

     Initial potential from superposition of free atoms

     starting charge     175.8397, renormalised to     176.0000
     Starting wfcs are  136 randomized atomic wfcs
     Checking if some PAW data can be deallocated... 

     total cpu time spent up to now is    48307.7 secs

     Self-consistent Calculation

     iteration #  1     ecut=    60.00 Ry     beta= 0.50
     Davidson diagonalization with overlap
     ethr =  1.00E-06,  avg # of iterations = 12.0

     total cpu time spent up to now is    48706.0 secs

     total energy              =   -8165.78110824 Ry
     estimated scf accuracy    <       0.32644931 Ry

     iteration #  2     ecut=    60.00 Ry     beta= 0.50
     Davidson diagonalization with overlap
     ethr =  1.85E-04,  avg # of iterations =  2.2

     total cpu time spent up to now is    48816.2 secs

     total energy              =   -8165.85488762 Ry
     estimated scf accuracy    <       0.01299125 Ry

     iteration #  3     ecut=    60.00 Ry     beta= 0.50
     Davidson diagonalization with overlap
     ethr =  7.38E-06,  avg # of iterations =  3.2

     total cpu time spent up to now is    48918.0 secs

     total energy              =   -8165.85703679 Ry
     estimated scf accuracy    <       0.00320234 Ry

     iteration #  4     ecut=    60.00 Ry     beta= 0.50
     Davidson diagonalization with overlap
     ethr =  1.82E-06,  avg # of iterations =  3.1

     total cpu time spent up to now is    49027.7 secs

     total energy              =   -8165.85766398 Ry
     estimated scf accuracy    <       0.00037070 Ry

     iteration #  5     ecut=    60.00 Ry     beta= 0.50
     Davidson diagonalization with overlap
     ethr =  2.11E-07,  avg # of iterations =  4.6

     total cpu time spent up to now is    49167.3 secs

     total energy              =   -8165.85786639 Ry
     estimated scf accuracy    <       0.00001823 Ry

     iteration #  6     ecut=    60.00 Ry     beta= 0.50
     Davidson diagonalization with overlap
     ethr =  1.04E-08,  avg # of iterations =  5.5

     total cpu time spent up to now is    49311.8 secs

     total energy              =   -8165.85787662 Ry
     estimated scf accuracy    <       0.00000149 Ry

     iteration #  7     ecut=    60.00 Ry     beta= 0.50
     Davidson diagonalization with overlap
     ethr =  8.44E-10,  avg # of iterations =  5.9

     total cpu time spent up to now is    49506.6 secs

     total energy              =   -8165.85787826 Ry
     estimated scf accuracy    <       0.00000026 Ry

     iteration #  8     ecut=    60.00 Ry     beta= 0.50
     Davidson diagonalization with overlap
     ethr =  1.48E-10,  avg # of iterations =  4.6

     total cpu time spent up to now is    49643.6 secs

     total energy              =   -8165.85787843 Ry
     estimated scf accuracy    <       0.00000007 Ry

     iteration #  9     ecut=    60.00 Ry     beta= 0.50
     Davidson diagonalization with overlap
     ethr =  3.95E-11,  avg # of iterations =  4.5

     total cpu time spent up to now is    49778.5 secs

     total energy              =   -8165.85787846 Ry
     estimated scf accuracy    <       0.00000002 Ry

     iteration # 10     ecut=    60.00 Ry     beta= 0.50
     Davidson diagonalization with overlap
     ethr =  1.38E-11,  avg # of iterations =  4.1

     total cpu time spent up to now is    49915.3 secs

     End of self-consistent calculation

          k = 0.0000 0.0000 0.0000 ( 49019 PWs)   bands (ev):

   -17.2592 -17.2585 -17.2569 -17.2564 -13.1006 -13.0971 -13.0965 -13.0932
   -13.0868 -13.0795 -13.0758 -13.0757 -13.0446 -13.0443 -13.0440 -13.0437
   -13.0417 -13.0416 -13.0411 -13.0409 -13.0357 -13.0353 -13.0350 -13.0347
    -8.7794  -8.5925  -8.3187  -8.2898  -8.2737  -8.2650  -8.2529  -8.2437
    -8.2305  -8.0574  -8.0435  -8.0431  -4.9805  -4.4725  -4.1308  -4.1267
    -4.1231  -4.1206  -4.1175  -4.1143  -4.1083  -4.1037  -4.0939  -4.0721
    -4.0598  -4.0524  -3.9156  -3.4740  -0.0099   0.0278   0.0488   0.1791
     0.1882   0.2810   1.1016   1.3944   1.4042   1.4312   1.4447   1.4953
     1.7304   1.9069   1.9258   1.9291   2.0144   2.0199   2.0312   2.0561
     2.0636   2.0773   2.1029   2.1030   2.1604   2.3522   2.3762   2.4149
     2.4416   2.4420   2.4624   2.4932   2.6838   2.6951   2.9616   3.4139

          k = 0.0000 0.0000-0.3471 ( 48946 PWs)   bands (ev):

   -17.2589 -17.2589 -17.2567 -17.2567 -13.0966 -13.0966 -13.0937 -13.0937
   -13.0865 -13.0865 -13.0758 -13.0758 -13.0443 -13.0443 -13.0440 -13.0440
   -13.0416 -13.0416 -13.0410 -13.0410 -13.0355 -13.0355 -13.0348 -13.0348
    -8.7059  -8.7059  -8.2875  -8.2875  -8.2775  -8.2775  -8.2395  -8.2395
    -8.1360  -8.1360  -8.0496  -8.0496  -4.7376  -4.7376  -4.1299  -4.1299
    -4.1292  -4.1292  -4.1100  -4.1100  -4.0793  -4.0793  -4.0739  -4.0739
    -4.0660  -4.0660  -3.7568  -3.7568   0.0764   0.0764   0.1157   0.1157
     0.7689   0.7689   1.0089   1.0089   1.2551   1.2551   1.5095   1.5095
     1.5966   1.5966   1.8598   1.8598   1.9617   1.9617   2.0550   2.0550
     2.1234   2.1234   2.1356   2.1356   2.2974   2.2974   2.3470   2.3470
     2.3849   2.3849   2.4348   2.4348   2.6300   2.6300   3.0383   3.0383

          k = 0.0000 0.3201 0.0000 ( 48978 PWs)   bands (ev):

   -17.2586 -17.2580 -17.2575 -17.2570 -13.0990 -13.0960 -13.0915 -13.0908
   -13.0853 -13.0812 -13.0809 -13.0806 -13.0445 -13.0444 -13.0439 -13.0438
   -13.0416 -13.0414 -13.0412 -13.0411 -13.0355 -13.0352 -13.0352 -13.0349
    -8.7113  -8.5293  -8.5205  -8.3584  -8.2667  -8.2585  -8.2019  -8.1843
    -8.1336  -8.1068  -8.0903  -8.0590  -4.7595  -4.3174  -4.3019  -4.1380
    -4.1280  -4.1155  -4.1128  -4.1007  -4.0874  -4.0815  -4.0808  -4.0793
    -4.0776  -4.0286  -4.0176  -3.7446   0.0726   0.1848   0.3308   0.4907
     0.4971   0.5657   1.0764   1.1357   1.2731   1.2956   1.3338   1.3532
     1.5223   1.6205   1.7148   1.7901   1.9184   2.0062   2.0163   2.0376
     2.0747   2.0828   2.1613   2.1744   2.1879   2.3031   2.3177   2.3229
     2.3738   2.3767   2.4465   2.5100   2.6267   2.7050   2.7754   3.0138

          k = 0.0000 0.3201-0.3471 ( 48992 PWs)   bands (ev):

   -17.2583 -17.2583 -17.2572 -17.2572 -13.0920 -13.0920 -13.0919 -13.0919
   -13.0878 -13.0878 -13.0809 -13.0809 -13.0442 -13.0442 -13.0441 -13.0441
   -13.0415 -13.0415 -13.0411 -13.0411 -13.0354 -13.0354 -13.0350 -13.0350
    -8.6378  -8.6378  -8.4666  -8.4666  -8.1947  -8.1947  -8.1737  -8.1737
    -8.1390  -8.1390  -8.0984  -8.0984  -4.5352  -4.5352  -4.1519  -4.1519
    -4.1203  -4.1203  -4.1199  -4.1199  -4.0980  -4.0980  -4.0803  -4.0803
    -4.0593  -4.0593  -3.9675  -3.9675   0.4056   0.4056   0.4742   0.4742
     0.8545   0.8545   0.8901   0.8901   1.1678   1.1678   1.2284   1.2284
     1.5913   1.5913   1.7368   1.7368   1.8400   1.8400   1.8626   1.8626
     2.0069   2.0069   2.0480   2.0480   2.3609   2.3609   2.3650   2.3650
     2.4348   2.4348   2.4363   2.4363   2.6670   2.6670   2.7021   2.7021

          k = 0.3412 0.0000 0.0000 ( 48967 PWs)   bands (ev):

   -17.2588 -17.2583 -17.2571 -17.2568 -13.0990 -13.0960 -13.0915 -13.0908
   -13.0853 -13.0812 -13.0810 -13.0806 -13.0445 -13.0444 -13.0439 -13.0438
   -13.0415 -13.0414 -13.0412 -13.0411 -13.0355 -13.0352 -13.0352 -13.0349
    -8.7054  -8.5131  -8.5130  -8.3339  -8.2683  -8.2613  -8.2331  -8.2107
    -8.1334  -8.1071  -8.0995  -8.0580  -4.7557  -4.2978  -4.2895  -4.1306
    -4.1260  -4.1117  -4.1103  -4.1068  -4.0998  -4.0774  -4.0767  -4.0718
    -4.0650  -4.0349  -4.0188  -3.7529   0.0731   0.1894   0.2990   0.4577
     0.4971   0.6517   0.9729   1.1805   1.2723   1.2841   1.3331   1.4787
     1.5124   1.6269   1.7684   1.7703   1.9667   1.9971   2.0417   2.0432
     2.1144   2.1156   2.1706   2.1735   2.2025   2.2440   2.2755   2.3375
     2.3429   2.4003   2.4276   2.4949   2.5734   2.5788   2.7126   2.9137

          k = 0.3412 0.0000-0.3471 ( 48906 PWs)   bands (ev):

   -17.2585 -17.2585 -17.2570 -17.2570 -13.0920 -13.0920 -13.0919 -13.0919
   -13.0878 -13.0878 -13.0809 -13.0809 -13.0442 -13.0442 -13.0441 -13.0441
   -13.0415 -13.0415 -13.0411 -13.0411 -13.0353 -13.0353 -13.0350 -13.0350
    -8.6319  -8.6319  -8.4498  -8.4498  -8.2243  -8.2243  -8.1681  -8.1681
    -8.1396  -8.1396  -8.1047  -8.1047  -4.5279  -4.5279  -4.1404  -4.1404
    -4.1322  -4.1322  -4.1035  -4.1035  -4.0789  -4.0789  -4.0700  -4.0700
    -4.0669  -4.0669  -3.9899  -3.9899   0.3699   0.3699   0.5239   0.5239
     0.7892   0.7892   0.9186   0.9186   1.1094   1.1094   1.2788   1.2788
     1.6730   1.6730   1.7230   1.7230   1.8936   1.8936   1.9481   1.9481
     2.0187   2.0187   2.1086   2.1086   2.3006   2.3006   2.3571   2.3571
     2.3912   2.3912   2.4346   2.4346   2.5331   2.5331   2.5899   2.5899

          k = 0.3412 0.3201 0.0000 ( 48971 PWs)   bands (ev):

   -17.2584 -17.2580 -17.2575 -17.2571 -13.0998 -13.0978 -13.0916 -13.0877
   -13.0869 -13.0822 -13.0810 -13.0783 -13.0445 -13.0444 -13.0439 -13.0438
   -13.0415 -13.0413 -13.0413 -13.0411 -13.0354 -13.0352 -13.0351 -13.0350
    -8.6512  -8.5430  -8.4453  -8.2992  -8.2883  -8.2737  -8.2696  -8.2565
    -8.2029  -8.1606  -8.0524  -8.0252  -4.6215  -4.3953  -4.2076  -4.1209
    -4.1186  -4.1089  -4.1065  -4.0992  -4.0941  -4.0914  -4.0791  -4.0746
    -4.0733  -4.0495  -3.9696  -3.8278   0.0887   0.1306   0.1427   0.2791
     0.4909   0.6592   1.0086   1.2076   1.2155   1.2246   1.3155   1.6059
     1.6103   1.6966   1.8180   1.9285   1.9662   2.0152   2.0278   2.0321
     2.0567   2.1147   2.1704   2.1864   2.2155   2.2392   2.2539   2.2828
     2.2945   2.3576   2.3814   2.4380   2.6061   2.6936   2.7843   2.9823

          k = 0.3412 0.3201-0.3471 ( 48978 PWs)   bands (ev):

   -17.2581 -17.2581 -17.2574 -17.2574 -13.0946 -13.0946 -13.0920 -13.0920
   -13.0850 -13.0850 -13.0811 -13.0811 -13.0442 -13.0442 -13.0441 -13.0441
   -13.0414 -13.0414 -13.0412 -13.0412 -13.0353 -13.0353 -13.0351 -13.0351
    -8.5746  -8.5746  -8.4659  -8.4659  -8.2792  -8.2792  -8.2096  -8.2096
    -8.1117  -8.1117  -8.0921  -8.0921  -4.4106  -4.4106  -4.2116  -4.2116
    -4.1160  -4.1160  -4.1032  -4.1032  -4.0895  -4.0895  -4.0689  -4.0689
    -4.0540  -4.0540  -4.0122  -4.0122   0.1940   0.1940   0.5478   0.5478
     0.7775   0.7775   0.9141   0.9141   1.0991   1.0991   1.3086   1.3086
     1.6232   1.6232   1.7165   1.7165   1.9108   1.9108   1.9967   1.9967
     2.0873   2.0873   2.1985   2.1985   2.2607   2.2607   2.3271   2.3271
     2.3529   2.3529   2.4307   2.4307   2.5610   2.5610   2.6752   2.6752

     highest occupied level (ev):     3.4139

!    total energy              =   -8165.85787848 Ry
     estimated scf accuracy    <          9.4E-10 Ry

     The total energy is the sum of the following terms:
     one-electron contribution =    -324.90477081 Ry
     hartree contribution      =     251.20739716 Ry
     xc contribution           =    -792.77797029 Ry
     ewald contribution        =    -649.76316882 Ry
     one-center paw contrib.   =   -6649.61936570 Ry

     convergence has been achieved in  10 iterations

     Forces acting on atoms (cartesian axes, Ry/au):

     atom    1 type  1   force =     0.00029649   -0.00020940    0.00000000
     atom    2 type  1   force =    -0.00029649    0.00020940    0.00000000
     atom    3 type  1   force =     0.00029649    0.00020940    0.00000000
     atom    4 type  1   force =    -0.00029649   -0.00020940    0.00000000
     atom    5 type  2   force =     0.00000000    0.00000000   -0.00000000
     atom    6 type  2   force =     0.00000000    0.00000000    0.00000000
     atom    7 type  2   force =     0.00000000    0.00000000    0.00000000
     atom    8 type  2   force =     0.00000000   -0.00000000    0.00000000
     atom    9 type  3   force =     0.00000706   -0.00012188    0.00000000
     atom   10 type  3   force =    -0.00000706    0.00012188    0.00000000
     atom   11 type  3   force =     0.00000706    0.00012188    0.00000000
     atom   12 type  3   force =    -0.00000706   -0.00012188    0.00000000
     atom   13 type  3   force =     0.00006929    0.00006003    0.00003395
     atom   14 type  3   force =    -0.00006929   -0.00006003    0.00003395
     atom   15 type  3   force =     0.00006929   -0.00006003   -0.00003395
     atom   16 type  3   force =    -0.00006929    0.00006003   -0.00003395
     atom   17 type  3   force =    -0.00006929   -0.00006003   -0.00003395
     atom   18 type  3   force =     0.00006929    0.00006003   -0.00003395
     atom   19 type  3   force =    -0.00006929    0.00006003    0.00003395
     atom   20 type  3   force =     0.00006929   -0.00006003    0.00003395

     Total force =     0.000814     Total SCF correction =     0.000005


     Computing stress (Cartesian axis) and pressure

          total   stress  (Ry/bohr**3)                   (kbar)     P=        0.16
   0.00000007   0.00000000   0.00000000            0.01        0.00        0.00
   0.00000000   0.00000254   0.00000000            0.00        0.37        0.00
   0.00000000   0.00000000   0.00000067            0.00        0.00        0.10


     Writing all to output data dir ./tmp/cspbi3_gamma_s1.save/ :
     XML data file, charge density, pseudopotentials, collected wavefunctions

     init_run     :    106.51s CPU    110.12s WALL (       2 calls)
     electrons    :  43835.20s CPU  44938.38s WALL (      37 calls)
     update_pot   :     57.84s CPU     60.16s WALL (      35 calls)
     forces       :   1109.03s CPU   1158.60s WALL (      37 calls)
     stress       :   3291.47s CPU   3387.91s WALL (      37 calls)

     Called by init_run:
     wfcinit      :     94.32s CPU     95.33s WALL (       2 calls)
     potinit      :      3.23s CPU      3.41s WALL (       2 calls)
     hinit0       :      1.31s CPU      1.39s WALL (       2 calls)

     Called by electrons:
     c_bands      :  37662.28s CPU  38011.69s WALL (     360 calls)
     sum_band     :   4621.05s CPU   5057.78s WALL (     360 calls)
     v_of_rho     :    157.12s CPU    171.76s WALL (     366 calls)
     newd         :   1204.60s CPU   1547.17s WALL (     366 calls)
     PAW_pot      :    342.53s CPU    342.62s WALL (     401 calls)
     mix_rho      :     27.74s CPU     28.77s WALL (     360 calls)

     Called by c_bands:
     init_us_2    :    175.56s CPU    176.69s WALL (    6648 calls)
     cegterg      :  37341.06s CPU  37687.62s WALL (    2880 calls)

     Called by *egterg:
     cdiaghg      :    343.26s CPU    343.44s WALL (   13754 calls)
     h_psi        :  15599.46s CPU  15856.54s WALL (   14298 calls)
     s_psi        :   5127.08s CPU   5129.38s WALL (   14298 calls)
     g_psi        :     57.31s CPU     57.46s WALL (   11402 calls)

     Called by h_psi:
     h_psi:calbec :   5327.94s CPU   5331.48s WALL (   14298 calls)
     vloc_psi     :   5122.93s CPU   5343.57s WALL (   14298 calls)
     add_vuspsi   :   5116.54s CPU   5117.39s WALL (   14298 calls)

     General routines
     calbec       :  10506.32s CPU  10512.18s WALL (   22490 calls)
     fft          :    149.19s CPU    162.50s WALL (    5675 calls)
     ffts         :      4.18s CPU      4.69s WALL (     726 calls)
     fftw         :   5211.75s CPU   5439.60s WALL ( 1743842 calls)
     interpolate  :     13.02s CPU     14.00s WALL (     366 calls)

     Parallel routines

     PWSCF        :     13h32m CPU     13h54m WALL


   This run was terminated on:  16:51:19   5Oct2026            

=------------------------------------------------------------------------------=
   JOB DONE.
=------------------------------------------------------------------------------=
