
     Program PWSCF v.7.6 starts on  5Oct2026 at 16:51:20 

     This program is part of the open-source Quantum ESPRESSO suite
     for quantum simulation of materials; please cite
         "P. Giannozzi et al., J. Phys.:Condens. Matter 21 395502 (2009);
         "P. Giannozzi et al., J. Phys.:Condens. Matter 29 465901 (2017);
         "P. Giannozzi et al., J. Chem. Phys. 152 154105 (2020);
          URL http://www.quantum-espresso.org", 
     in publications or presentations arising from this work. More details at
     http://www.quantum-espresso.org/quote

     Parallel version (MPI), running on     6 processors

     MPI processes distributed on     1 nodes
     5756 MiB available memory on the printing compute node when the environment starts

     Reading input from vcrelax.in

     Current dimensions of program PWSCF are:
     Max number of different atomic species (ntypx) = 10
     Max number of k-points (npk) =  40000
     Max angular momentum in pseudopotentials (lmaxx) =  4
     file Pb.pbesol-dn-kjpaw_psl.0.2.2.UPF: wavefunction(s)  6S renormalized
     Message from routine setup:
     using ibrav=0 with symmetry is DISCOURAGED, use correct ibrav instead

     R & G space division:  proc/nbgrp/npool/nimage =       6
     Subspace diagonalization in iterative solution of the eigenvalue problem:
     a serial algorithm will be used


     Parallelization info
     --------------------
     sticks:   dense  smooth     PW     G-vecs:    dense   smooth      PW
     Min        1700     849    229               184662    65267    9091
     Max        1702     850    230               184663    65270    9094
     Sum       10203    5097   1375              1107973   391607   54553

     Using Slab Decomposition



     bravais-lattice index     =            0
     lattice parameter (alat)  =      15.8317  a.u.
     unit-cell volume          =    6238.3113 (a.u.)^3
     number of atoms/cell      =           20
     number of atomic types    =            3
     number of electrons       =       176.00
     number of Kohn-Sham states=           88
     kinetic-energy cutoff     =      60.0000  Ry
     charge density cutoff     =     480.0000  Ry
     scf convergence threshold =      1.0E-07
     mixing beta               =       0.5000
     number of iterations used =            8  plain     mixing
     energy convergence thresh.=      1.0E-04
     force convergence thresh. =      1.0E-03
     press convergence thresh. =      5.0E-01
     Exchange-correlation= SLA  PW   PSX  PSC
                           (   1   4  10   8   0   0   0)
     nstep                     =          150


     celldm(1)=  15.831664  celldm(2)=   0.000000  celldm(3)=   0.000000
     celldm(4)=   0.000000  celldm(5)=   0.000000  celldm(6)=   0.000000

     crystal axes: (cart. coord. in units of alat)
               a(1) = (   1.000000   0.000000   0.000000 )  
               a(2) = (   0.000000   1.066218   0.000000 )  
               a(3) = (   0.000000   0.000000   1.474489 )  

     reciprocal axes: (cart. coord. in units 2 pi/alat)
               b(1) = (  1.000000  0.000000  0.000000 )  
               b(2) = (  0.000000  0.937895  0.000000 )  
               b(3) = (  0.000000  0.000000  0.678201 )  


     PseudoPot. # 1 for Cs read from file:
     /home/duydao/pseudo_pbesol/cs_pbesol_v1.uspp.F.UPF
     MD5 check sum: ae4559e5c840913b791237f814e2d884
     Pseudo is Ultrasoft + core correction, Zval =  9.0
     Generated by new atomic code, or converted to UPF format
     Using radial grid of  905 points,  6 beta functions with: 
                l(1) =   0
                l(2) =   0
                l(3) =   1
                l(4) =   1
                l(5) =   2
                l(6) =   2
     Q(r) pseudized with  6 coefficients,  rinner =    1.500   1.500   1.500
                                                       1.500   1.500

     PseudoPot. # 2 for Pb read from file:
     /home/duydao/pseudo_pbesol/Pb.pbesol-dn-kjpaw_psl.0.2.2.UPF
     MD5 check sum: df0e0ac60519e244e20a4bf230ae894d
     Pseudo is Projector augmented-wave + core cor, Zval = 14.0
     Generated using "atomic" code by A. Dal Corso  v.6.0 svn rev. 13079
     Shape of augmentation charge: PSQ
     Using radial grid of 1281 points,  6 beta functions with: 
                l(1) =   0
                l(2) =   0
                l(3) =   1
                l(4) =   1
                l(5) =   2
                l(6) =   2
     Q(r) pseudized with 0 coefficients 


     PseudoPot. # 3 for I  read from file:
     /home/duydao/pseudo_pbesol/I.pbesol-n-kjpaw_psl.0.2.UPF
     MD5 check sum: cecf1a22a184a0b1ae701638a037a48d
     Pseudo is Projector augmented-wave + core cor, Zval =  7.0
     Generated using "atomic" code by A. Dal Corso  v.6.0 svn rev. 13079
     Shape of augmentation charge: PSQ
     Using radial grid of 1247 points,  4 beta functions with: 
                l(1) =   0
                l(2) =   0
                l(3) =   1
                l(4) =   1
     Q(r) pseudized with 0 coefficients 


     atomic species   valence    mass     pseudopotential
     Cs                9.00   132.90500     Cs( 1.00)
     Pb               14.00   207.20000     Pb( 1.00)
     I                 7.00   126.90400     I ( 1.00)

      8 Sym. Ops., with inversion, found ( 6 have fractional translation)



   Cartesian axes

     site n.     atom                  positions (alat units)
         1        Cs     tau(   1) = (   0.4666242   0.4445737   0.3686222  )
         2        Cs     tau(   2) = (   0.5333758   0.6216440   1.1058665  )
         3        Cs     tau(   3) = (  -0.0333758   0.0885351   1.1058665  )
         4        Cs     tau(   4) = (   1.0333758   0.9776826   0.3686222  )
         5        Pb     tau(   5) = (   0.5000000   0.0000000   0.0000000  )
         6        Pb     tau(   6) = (   0.5000000   0.0000000   0.7372444  )
         7        Pb     tau(   7) = (   0.0000000   0.5331089   0.0000000  )
         8        Pb     tau(   8) = (   0.0000000   0.5331089   0.7372444  )
         9        I      tau(   9) = (   0.5863324   0.0079175   0.3686222  )
        10        I      tau(  10) = (   0.4136676   1.0583002   1.1058665  )
        11        I      tau(  11) = (   0.0863324   0.5251914   1.1058665  )
        12        I      tau(  12) = (   0.9136676   0.5410263   0.3686222  )
        13        I      tau(  13) = (   0.6875897   0.3256059   1.4150148  )
        14        I      tau(  14) = (   0.3124103   0.7406118   0.6777704  )
        15        I      tau(  15) = (   0.1875897   0.2075029   0.0594739  )
        16        I      tau(  16) = (   0.8124103   0.8587148   0.7967183  )
        17        I      tau(  17) = (   0.3124103   0.7406118   0.0594739  )
        18        I      tau(  18) = (   0.6875897   0.3256059   0.7967183  )
        19        I      tau(  19) = (   0.8124103   0.8587148   1.4150148  )
        20        I      tau(  20) = (   0.1875897   0.2075029   0.6777704  )

     number of k points=    18
                       cart. coord. in units 2pi/alat
        k(    1) = (   0.0000000   0.0000000   0.0000000), wk =   0.0416667
        k(    2) = (   0.0000000   0.0000000   0.2260671), wk =   0.0833333
        k(    3) = (   0.0000000   0.2344737   0.0000000), wk =   0.0833333
        k(    4) = (   0.0000000   0.2344737   0.2260671), wk =   0.1666667
        k(    5) = (   0.0000000  -0.4689474   0.0000000), wk =   0.0416667
        k(    6) = (   0.0000000  -0.4689474   0.2260671), wk =   0.0833333
        k(    7) = (   0.2500000   0.0000000   0.0000000), wk =   0.0833333
        k(    8) = (   0.2500000   0.0000000   0.2260671), wk =   0.1666667
        k(    9) = (   0.2500000   0.2344737   0.0000000), wk =   0.1666667
        k(   10) = (   0.2500000   0.2344737   0.2260671), wk =   0.3333333
        k(   11) = (   0.2500000  -0.4689474   0.0000000), wk =   0.0833333
        k(   12) = (   0.2500000  -0.4689474   0.2260671), wk =   0.1666667
        k(   13) = (  -0.5000000   0.0000000   0.0000000), wk =   0.0416667
        k(   14) = (  -0.5000000   0.0000000   0.2260671), wk =   0.0833333
        k(   15) = (  -0.5000000   0.2344737   0.0000000), wk =   0.0833333
        k(   16) = (  -0.5000000   0.2344737   0.2260671), wk =   0.1666667
        k(   17) = (  -0.5000000  -0.4689474   0.0000000), wk =   0.0416667
        k(   18) = (  -0.5000000  -0.4689474   0.2260671), wk =   0.0833333

     Dense  grid:  1107973 G-vectors     FFT dimensions: ( 120, 120, 180)

     Smooth grid:   391607 G-vectors     FFT dimensions: (  80,  90, 120)

     Estimated max dynamical RAM per process >     986.78 MB

     Estimated total dynamical RAM >       5.78 GB

     Initial potential from superposition of free atoms

     starting charge     175.8397, renormalised to     176.0000
     Starting wfcs are  136 randomized atomic wfcs
     Checking if some PAW data can be deallocated... 

     total cpu time spent up to now is      113.9 secs

     Self-consistent Calculation

     iteration #  1     ecut=    60.00 Ry     beta= 0.50
     Davidson diagonalization with overlap
