
     Program PWSCF v.7.6 starts on  5Oct2026 at 16:51:20 

     This program is part of the open-source Quantum ESPRESSO suite
     for quantum simulation of materials; please cite
         "P. Giannozzi et al., J. Phys.:Condens. Matter 21 395502 (2009);
         "P. Giannozzi et al., J. Phys.:Condens. Matter 29 465901 (2017);
         "P. Giannozzi et al., J. Chem. Phys. 152 154105 (2020);
          URL http://www.quantum-espresso.org", 
     in publications or presentations arising from this work. More details at
     http://www.quantum-espresso.org/quote

     Parallel version (MPI), running on     6 processors

     MPI processes distributed on     1 nodes
     5756 MiB available memory on the printing compute node when the environment starts

     Reading input from vcrelax.in

     Current dimensions of program PWSCF are:
     Max number of different atomic species (ntypx) = 10
     Max number of k-points (npk) =  40000
     Max angular momentum in pseudopotentials (lmaxx) =  4
     file Pb.pbesol-dn-kjpaw_psl.0.2.2.UPF: wavefunction(s)  6S renormalized
     Message from routine setup:
     using ibrav=0 with symmetry is DISCOURAGED, use correct ibrav instead

     R & G space division:  proc/nbgrp/npool/nimage =       6
     Subspace diagonalization in iterative solution of the eigenvalue problem:
     a serial algorithm will be used


     Parallelization info
     --------------------
     sticks:   dense  smooth     PW     G-vecs:    dense   smooth      PW
     Min        1700     849    229               184662    65267    9091
     Max        1702     850    230               184663    65270    9094
     Sum       10203    5097   1375              1107973   391607   54553

     Using Slab Decomposition



     bravais-lattice index     =            0
     lattice parameter (alat)  =      15.8317  a.u.
     unit-cell volume          =    6238.3113 (a.u.)^3
     number of atoms/cell      =           20
     number of atomic types    =            3
     number of electrons       =       176.00
     number of Kohn-Sham states=           88
     kinetic-energy cutoff     =      60.0000  Ry
     charge density cutoff     =     480.0000  Ry
     scf convergence threshold =      1.0E-07
     mixing beta               =       0.5000
     number of iterations used =            8  plain     mixing
     energy convergence thresh.=      1.0E-04
     force convergence thresh. =      1.0E-03
     press convergence thresh. =      5.0E-01
     Exchange-correlation= SLA  PW   PSX  PSC
                           (   1   4  10   8   0   0   0)
     nstep                     =          150


     celldm(1)=  15.831664  celldm(2)=   0.000000  celldm(3)=   0.000000
     celldm(4)=   0.000000  celldm(5)=   0.000000  celldm(6)=   0.000000

     crystal axes: (cart. coord. in units of alat)
               a(1) = (   1.000000   0.000000   0.000000 )  
               a(2) = (   0.000000   1.066218   0.000000 )  
               a(3) = (   0.000000   0.000000   1.474489 )  

     reciprocal axes: (cart. coord. in units 2 pi/alat)
               b(1) = (  1.000000  0.000000  0.000000 )  
               b(2) = (  0.000000  0.937895  0.000000 )  
               b(3) = (  0.000000  0.000000  0.678201 )  


     PseudoPot. # 1 for Cs read from file:
     /home/duydao/pseudo_pbesol/cs_pbesol_v1.uspp.F.UPF
     MD5 check sum: ae4559e5c840913b791237f814e2d884
     Pseudo is Ultrasoft + core correction, Zval =  9.0
     Generated by new atomic code, or converted to UPF format
     Using radial grid of  905 points,  6 beta functions with: 
                l(1) =   0
                l(2) =   0
                l(3) =   1
                l(4) =   1
                l(5) =   2
                l(6) =   2
     Q(r) pseudized with  6 coefficients,  rinner =    1.500   1.500   1.500
                                                       1.500   1.500

     PseudoPot. # 2 for Pb read from file:
     /home/duydao/pseudo_pbesol/Pb.pbesol-dn-kjpaw_psl.0.2.2.UPF
     MD5 check sum: df0e0ac60519e244e20a4bf230ae894d
     Pseudo is Projector augmented-wave + core cor, Zval = 14.0
     Generated using "atomic" code by A. Dal Corso  v.6.0 svn rev. 13079
     Shape of augmentation charge: PSQ
     Using radial grid of 1281 points,  6 beta functions with: 
                l(1) =   0
                l(2) =   0
                l(3) =   1
                l(4) =   1
                l(5) =   2
                l(6) =   2
     Q(r) pseudized with 0 coefficients 


     PseudoPot. # 3 for I  read from file:
     /home/duydao/pseudo_pbesol/I.pbesol-n-kjpaw_psl.0.2.UPF
     MD5 check sum: cecf1a22a184a0b1ae701638a037a48d
     Pseudo is Projector augmented-wave + core cor, Zval =  7.0
     Generated using "atomic" code by A. Dal Corso  v.6.0 svn rev. 13079
     Shape of augmentation charge: PSQ
     Using radial grid of 1247 points,  4 beta functions with: 
                l(1) =   0
                l(2) =   0
                l(3) =   1
                l(4) =   1
     Q(r) pseudized with 0 coefficients 


     atomic species   valence    mass     pseudopotential
     Cs                9.00   132.90500     Cs( 1.00)
     Pb               14.00   207.20000     Pb( 1.00)
     I                 7.00   126.90400     I ( 1.00)

      8 Sym. Ops., with inversion, found ( 6 have fractional translation)



   Cartesian axes

     site n.     atom                  positions (alat units)
         1        Cs     tau(   1) = (   0.4666242   0.4445737   0.3686222  )
         2        Cs     tau(   2) = (   0.5333758   0.6216440   1.1058665  )
         3        Cs     tau(   3) = (  -0.0333758   0.0885351   1.1058665  )
         4        Cs     tau(   4) = (   1.0333758   0.9776826   0.3686222  )
         5        Pb     tau(   5) = (   0.5000000   0.0000000   0.0000000  )
         6        Pb     tau(   6) = (   0.5000000   0.0000000   0.7372444  )
         7        Pb     tau(   7) = (   0.0000000   0.5331089   0.0000000  )
         8        Pb     tau(   8) = (   0.0000000   0.5331089   0.7372444  )
         9        I      tau(   9) = (   0.5863324   0.0079175   0.3686222  )
        10        I      tau(  10) = (   0.4136676   1.0583002   1.1058665  )
        11        I      tau(  11) = (   0.0863324   0.5251914   1.1058665  )
        12        I      tau(  12) = (   0.9136676   0.5410263   0.3686222  )
        13        I      tau(  13) = (   0.6875897   0.3256059   1.4150148  )
        14        I      tau(  14) = (   0.3124103   0.7406118   0.6777704  )
        15        I      tau(  15) = (   0.1875897   0.2075029   0.0594739  )
        16        I      tau(  16) = (   0.8124103   0.8587148   0.7967183  )
        17        I      tau(  17) = (   0.3124103   0.7406118   0.0594739  )
        18        I      tau(  18) = (   0.6875897   0.3256059   0.7967183  )
        19        I      tau(  19) = (   0.8124103   0.8587148   1.4150148  )
        20        I      tau(  20) = (   0.1875897   0.2075029   0.6777704  )

     number of k points=    18
                       cart. coord. in units 2pi/alat
        k(    1) = (   0.0000000   0.0000000   0.0000000), wk =   0.0416667
        k(    2) = (   0.0000000   0.0000000   0.2260671), wk =   0.0833333
        k(    3) = (   0.0000000   0.2344737   0.0000000), wk =   0.0833333
        k(    4) = (   0.0000000   0.2344737   0.2260671), wk =   0.1666667
        k(    5) = (   0.0000000  -0.4689474   0.0000000), wk =   0.0416667
        k(    6) = (   0.0000000  -0.4689474   0.2260671), wk =   0.0833333
        k(    7) = (   0.2500000   0.0000000   0.0000000), wk =   0.0833333
        k(    8) = (   0.2500000   0.0000000   0.2260671), wk =   0.1666667
        k(    9) = (   0.2500000   0.2344737   0.0000000), wk =   0.1666667
        k(   10) = (   0.2500000   0.2344737   0.2260671), wk =   0.3333333
        k(   11) = (   0.2500000  -0.4689474   0.0000000), wk =   0.0833333
        k(   12) = (   0.2500000  -0.4689474   0.2260671), wk =   0.1666667
        k(   13) = (  -0.5000000   0.0000000   0.0000000), wk =   0.0416667
        k(   14) = (  -0.5000000   0.0000000   0.2260671), wk =   0.0833333
        k(   15) = (  -0.5000000   0.2344737   0.0000000), wk =   0.0833333
        k(   16) = (  -0.5000000   0.2344737   0.2260671), wk =   0.1666667
        k(   17) = (  -0.5000000  -0.4689474   0.0000000), wk =   0.0416667
        k(   18) = (  -0.5000000  -0.4689474   0.2260671), wk =   0.0833333

     Dense  grid:  1107973 G-vectors     FFT dimensions: ( 120, 120, 180)

     Smooth grid:   391607 G-vectors     FFT dimensions: (  80,  90, 120)

     Estimated max dynamical RAM per process >     986.78 MB

     Estimated total dynamical RAM >       5.78 GB

     Initial potential from superposition of free atoms

     starting charge     175.8397, renormalised to     176.0000
     Starting wfcs are  136 randomized atomic wfcs
     Checking if some PAW data can be deallocated... 

     total cpu time spent up to now is      113.9 secs

     Self-consistent Calculation

     iteration #  1     ecut=    60.00 Ry     beta= 0.50
     Davidson diagonalization with overlap
     ethr =  1.00E-02,  avg # of iterations =  1.7

     Threshold (ethr) on eigenvalues was too large:
     Diagonalizing with lowered threshold

     Davidson diagonalization with overlap
     ethr =  2.28E-04,  avg # of iterations =  4.8

     total cpu time spent up to now is      538.7 secs

     total energy              =   -8165.75185156 Ry
     estimated scf accuracy    <       0.35026608 Ry

     iteration #  2     ecut=    60.00 Ry     beta= 0.50
     Davidson diagonalization with overlap
     ethr =  1.99E-04,  avg # of iterations =  3.4

     total cpu time spent up to now is      783.3 secs

     total energy              =   -8165.84880131 Ry
     estimated scf accuracy    <       0.01541415 Ry

     iteration #  3     ecut=    60.00 Ry     beta= 0.50
     Davidson diagonalization with overlap
     ethr =  8.76E-06,  avg # of iterations =  5.0

     total cpu time spent up to now is     1106.4 secs

     total energy              =   -8165.85932162 Ry
     estimated scf accuracy    <       0.00506046 Ry

     iteration #  4     ecut=    60.00 Ry     beta= 0.50
     Davidson diagonalization with overlap
     ethr =  2.88E-06,  avg # of iterations =  2.6

     total cpu time spent up to now is     1346.6 secs

     total energy              =   -8165.86036200 Ry
     estimated scf accuracy    <       0.00052086 Ry

     iteration #  5     ecut=    60.00 Ry     beta= 0.50
     Davidson diagonalization with overlap
     ethr =  2.96E-07,  avg # of iterations =  4.6

     total cpu time spent up to now is     1645.4 secs

     total energy              =   -8165.86051618 Ry
     estimated scf accuracy    <       0.00027014 Ry

     iteration #  6     ecut=    60.00 Ry     beta= 0.50
     Davidson diagonalization with overlap
     ethr =  1.53E-07,  avg # of iterations =  1.1

     total cpu time spent up to now is     1820.7 secs

     total energy              =   -8165.86046021 Ry
     estimated scf accuracy    <       0.00016879 Ry

     iteration #  7     ecut=    60.00 Ry     beta= 0.50
     Davidson diagonalization with overlap
     ethr =  9.59E-08,  avg # of iterations =  4.3

     total cpu time spent up to now is     2123.1 secs

     total energy              =   -8165.86051048 Ry
     estimated scf accuracy    <       0.00007302 Ry

     iteration #  8     ecut=    60.00 Ry     beta= 0.50
     Davidson diagonalization with overlap
     ethr =  4.15E-08,  avg # of iterations =  2.0

     total cpu time spent up to now is     2311.3 secs

     total energy              =   -8165.86050575 Ry
     estimated scf accuracy    <       0.00002148 Ry

     iteration #  9     ecut=    60.00 Ry     beta= 0.50
     Davidson diagonalization with overlap
     ethr =  1.22E-08,  avg # of iterations =  4.2

     total cpu time spent up to now is     2574.5 secs

     total energy              =   -8165.86051250 Ry
     estimated scf accuracy    <       0.00000473 Ry

     iteration # 10     ecut=    60.00 Ry     beta= 0.50
     Davidson diagonalization with overlap
     ethr =  2.69E-09,  avg # of iterations =  3.9

     total cpu time spent up to now is     2767.7 secs

     total energy              =   -8165.86051207 Ry
     estimated scf accuracy    <       0.00000358 Ry

     iteration # 11     ecut=    60.00 Ry     beta= 0.50
     Davidson diagonalization with overlap
     ethr =  2.03E-09,  avg # of iterations =  2.1

     total cpu time spent up to now is     2958.6 secs

     total energy              =   -8165.86051204 Ry
     estimated scf accuracy    <       0.00000095 Ry

     iteration # 12     ecut=    60.00 Ry     beta= 0.50
     Davidson diagonalization with overlap
     ethr =  5.39E-10,  avg # of iterations =  4.4

     total cpu time spent up to now is     3232.8 secs

     End of self-consistent calculation

          k = 0.0000 0.0000 0.0000 ( 49019 PWs)   bands (ev):

   -17.2596 -17.2589 -17.2572 -17.2568 -13.0951 -13.0928 -13.0924 -13.0878
   -13.0812 -13.0739 -13.0718 -13.0716 -13.0394 -13.0392 -13.0388 -13.0386
   -13.0369 -13.0368 -13.0364 -13.0362 -13.0307 -13.0304 -13.0300 -13.0297
    -8.7807  -8.5910  -8.3267  -8.2886  -8.2814  -8.2637  -8.2614  -8.2433
    -8.2292  -8.0561  -8.0489  -8.0418  -4.9774  -4.4700  -4.1313  -4.1270
    -4.1233  -4.1211  -4.1180  -4.1131  -4.1085  -4.1039  -4.0944  -4.0725
    -4.0603  -4.0528  -3.9141  -3.4708  -0.0124   0.0290   0.0500   0.1800
     0.1885   0.2769   1.1025   1.3949   1.4054   1.4289   1.4430   1.4931
     1.7270   1.9078   1.9262   1.9278   2.0118   2.0212   2.0258   2.0573
     2.0650   2.0742   2.0989   2.1003   2.1569   2.3534   2.3744   2.4147
     2.4389   2.4411   2.4620   2.4906   2.6806   2.6939   2.9632   3.4133

          k = 0.0000 0.0000 0.2261 ( 48966 PWs)   bands (ev):

   -17.2594 -17.2590 -17.2571 -17.2569 -13.0926 -13.0924 -13.0916 -13.0846
   -13.0844 -13.0774 -13.0718 -13.0717 -13.0393 -13.0391 -13.0390 -13.0388
   -13.0369 -13.0368 -13.0363 -13.0362 -13.0306 -13.0304 -13.0300 -13.0298
    -8.7465  -8.6578  -8.3114  -8.2839  -8.2776  -8.2702  -8.2437  -8.2337
    -8.1999  -8.0928  -8.0520  -8.0449  -4.8589  -4.6046  -4.1314  -4.1304
    -4.1290  -4.1269  -4.1146  -4.1060  -4.0878  -4.0876  -4.0748  -4.0700
    -4.0695  -4.0622  -3.8553  -3.6249   0.0537   0.0827   0.0945   0.1532
     0.4198   0.6289   1.1017   1.1730   1.2853   1.4594   1.4697   1.5145
     1.5445   1.6652   1.8414   1.9251   1.9468   1.9747   2.0529   2.0629
     2.0833   2.1200   2.1580   2.1633   2.2537   2.2651   2.3183   2.3660
     2.4017   2.4086   2.4420   2.4603   2.6052   2.6690   2.9913   3.1396

          k = 0.0000 0.2345 0.0000 ( 48996 PWs)   bands (ev):

   -17.2592 -17.2586 -17.2576 -17.2571 -13.0941 -13.0908 -13.0895 -13.0878
   -13.0803 -13.0749 -13.0748 -13.0745 -13.0394 -13.0392 -13.0388 -13.0386
   -13.0369 -13.0367 -13.0364 -13.0363 -13.0306 -13.0303 -13.0301 -13.0298
    -8.7422  -8.5495  -8.4764  -8.3196  -8.2773  -8.2651  -8.2192  -8.2022
    -8.1706  -8.0852  -8.0694  -8.0567  -4.8480  -4.3693  -4.2310  -4.1355
    -4.1280  -4.1210  -4.1171  -4.1068  -4.0877  -4.0862  -4.0805  -4.0790
    -4.0713  -4.0345  -3.9962  -3.6383   0.0445   0.2057   0.2112   0.3090
     0.3749   0.4015   1.1705   1.2798   1.2806   1.3532   1.4308   1.4870
     1.4985   1.6019   1.7462   1.8661   1.9734   1.9749   2.0176   2.0412
     2.1130   2.1165   2.1646   2.1688   2.1834   2.2839   2.3289   2.3332
     2.3881   2.4051   2.4511   2.5091   2.6950   2.7213   2.7408   3.1277

          k = 0.0000 0.2345 0.2261 ( 48994 PWs)   bands (ev):

   -17.2591 -17.2587 -17.2575 -17.2572 -13.0906 -13.0899 -13.0895 -13.0852
   -13.0837 -13.0784 -13.0747 -13.0746 -13.0392 -13.0391 -13.0389 -13.0388
   -13.0368 -13.0367 -13.0364 -13.0363 -13.0305 -13.0304 -13.0301 -13.0299
    -8.7079  -8.6185  -8.4503  -8.3825  -8.2183  -8.2179  -8.2099  -8.1953
    -8.1817  -8.0972  -8.0812  -8.0731  -4.7354  -4.4936  -4.1595  -4.1306
    -4.1294  -4.1186  -4.1149  -4.1099  -4.0965  -4.0868  -4.0850  -4.0709
    -4.0668  -4.0539  -3.9706  -3.7803   0.2462   0.2705   0.3203   0.3462
     0.4913   0.5753   1.1281   1.2142   1.2576   1.3111   1.3255   1.4088
     1.5175   1.6046   1.6243   1.8230   1.8239   1.9359   1.9366   2.0240
     2.0366   2.1066   2.1157   2.1385   2.2652   2.3132   2.3536   2.3725
     2.3982   2.4043   2.4315   2.4789   2.6517   2.6913   2.7256   2.8790

          k = 0.0000-0.4689 0.0000 ( 48914 PWs)   bands (ev):

   -17.2584 -17.2584 -17.2578 -17.2578 -13.0918 -13.0918 -13.0825 -13.0825
   -13.0819 -13.0819 -13.0770 -13.0770 -13.0393 -13.0393 -13.0387 -13.0387
   -13.0367 -13.0367 -13.0365 -13.0365 -13.0304 -13.0304 -13.0301 -13.0301
    -8.6333  -8.6333  -8.4415  -8.4415  -8.2715  -8.2715  -8.1539  -8.1539
    -8.1362  -8.1362  -8.0904  -8.0904  -4.5343  -4.5343  -4.1682  -4.1682
    -4.1230  -4.1230  -4.0999  -4.0999  -4.0969  -4.0969  -4.0815  -4.0815
    -4.0622  -4.0622  -3.9318  -3.9318   0.1217   0.1217   0.6441   0.6441
     0.8298   0.8298   0.9115   0.9115   0.9929   0.9929   1.3209   1.3209
     1.6194   1.6194   1.7375   1.7375   1.8466   1.8466   2.0202   2.0202
     2.0908   2.0908   2.1249   2.1249   2.2215   2.2215   2.3388   2.3388
     2.3946   2.3946   2.4522   2.4522   2.6387   2.6387   2.8572   2.8572

          k = 0.0000-0.4689 0.2261 ( 48966 PWs)   bands (ev):

   -17.2582 -17.2582 -17.2580 -17.2580 -13.0884 -13.0884 -13.0831 -13.0831
   -13.0818 -13.0818 -13.0800 -13.0800 -13.0392 -13.0392 -13.0389 -13.0389
   -13.0366 -13.0366 -13.0365 -13.0365 -13.0303 -13.0303 -13.0301 -13.0301
    -8.6004  -8.6004  -8.5139  -8.5139  -8.2024  -8.2024  -8.1507  -8.1507
    -8.1400  -8.1400  -8.1189  -8.1189  -4.4312  -4.4312  -4.2274  -4.2274
    -4.1258  -4.1258  -4.1107  -4.1107  -4.0956  -4.0956  -4.0787  -4.0787
    -4.0588  -4.0588  -4.0045  -4.0045   0.4571   0.4571   0.6860   0.6860
     0.7654   0.7654   0.9254   0.9254   0.9672   0.9672   1.2236   1.2236
     1.6713   1.6713   1.7211   1.7211   1.7955   1.7955   1.8927   1.8927
     1.9412   1.9412   1.9799   1.9799   2.3215   2.3215   2.3871   2.3871
     2.3984   2.3984   2.4739   2.4739   2.6485   2.6485   2.7052   2.7052

          k = 0.2500 0.0000 0.0000 ( 48923 PWs)   bands (ev):

   -17.2593 -17.2587 -17.2574 -17.2570 -13.0941 -13.0908 -13.0895 -13.0878
   -13.0803 -13.0748 -13.0748 -13.0745 -13.0394 -13.0392 -13.0388 -13.0386
   -13.0369 -13.0367 -13.0364 -13.0363 -13.0306 -13.0303 -13.0301 -13.0298
    -8.7388  -8.5451  -8.4597  -8.2911  -8.2776  -8.2681  -8.2541  -8.2320
    -8.1569  -8.0895  -8.0748  -8.0565  -4.8459  -4.3614  -4.2068  -4.1272
    -4.1247  -4.1188  -4.1147  -4.1081  -4.1078  -4.0884  -4.0835  -4.0728
    -4.0645  -4.0416  -3.9922  -3.6416   0.0432   0.1846   0.2127   0.3196
     0.3337   0.4683   1.1404   1.1822   1.3119   1.3835   1.4970   1.5010
     1.5065   1.6115   1.8265   1.8509   1.9805   1.9889   2.0171   2.0348
     2.1162   2.1273   2.1748   2.2101   2.2170   2.2257   2.2389   2.3621
     2.3768   2.4067   2.4523   2.5046   2.6211   2.6816   2.7038   3.0479

          k = 0.2500 0.0000 0.2261 ( 48985 PWs)   bands (ev):

   -17.2591 -17.2588 -17.2573 -17.2571 -13.0906 -13.0899 -13.0895 -13.0851
   -13.0837 -13.0783 -13.0748 -13.0746 -13.0392 -13.0391 -13.0389 -13.0388
   -13.0368 -13.0367 -13.0364 -13.0363 -13.0305 -13.0304 -13.0301 -13.0299
    -8.7045  -8.6149  -8.4333  -8.3646  -8.2506  -8.2395  -8.2081  -8.1999
    -8.1688  -8.0974  -8.0852  -8.0777  -4.7323  -4.4878  -4.1420  -4.1347
    -4.1307  -4.1215  -4.1017  -4.0997  -4.0937  -4.0880  -4.0804  -4.0678
    -4.0648  -4.0622  -3.9771  -3.7879   0.2153   0.2606   0.3176   0.4134
     0.4750   0.5692   1.1042   1.1525   1.2168   1.3420   1.3874   1.3924
     1.5801   1.6205   1.6414   1.7969   1.9232   1.9415   2.0355   2.0360
     2.0626   2.0859   2.1518   2.1902   2.2493   2.2505   2.3097   2.3598
     2.3831   2.4003   2.4198   2.4730   2.5757   2.6003   2.6902   2.7729

          k = 0.2500 0.2345 0.0000 ( 48923 PWs)   bands (ev):

   -17.2590 -17.2585 -17.2577 -17.2573 -13.0945 -13.0910 -13.0884 -13.0857
   -13.0803 -13.0774 -13.0763 -13.0732 -13.0393 -13.0392 -13.0388 -13.0387
   -13.0368 -13.0366 -13.0365 -13.0363 -13.0305 -13.0302 -13.0302 -13.0299
    -8.7041  -8.5049  -8.5020  -8.2863  -8.2823  -8.2771  -8.2625  -8.2590
    -8.1464  -8.1075  -8.0966  -8.0361  -4.7442  -4.2961  -4.2892  -4.1245
    -4.1172  -4.1158  -4.1152  -4.1046  -4.0958  -4.0825  -4.0787  -4.0767
    -4.0734  -4.0244  -4.0134  -3.7312   0.0610   0.0993   0.1772   0.2448
     0.7054   0.8197   0.8550   1.0295   1.2586   1.2694   1.2943   1.5466
     1.5596   1.7072   1.7945   1.9148   1.9578   1.9725   2.0467   2.0653
     2.0681   2.1110   2.1318   2.1414   2.2186   2.2755   2.3207   2.3220
     2.3340   2.3599   2.4427   2.4720   2.6027   2.7104   2.7394   3.0487

          k = 0.2500 0.2345 0.2261 ( 48974 PWs)   bands (ev):

   -17.2589 -17.2586 -17.2576 -17.2574 -13.0918 -13.0889 -13.0879 -13.0846
   -13.0825 -13.0800 -13.0761 -13.0748 -13.0392 -13.0391 -13.0389 -13.0388
   -13.0368 -13.0367 -13.0365 -13.0364 -13.0305 -13.0303 -13.0301 -13.0300
    -8.6693  -8.5781  -8.4704  -8.3857  -8.2738  -8.2690  -8.2067  -8.1755
    -8.1516  -8.1164  -8.1023  -8.0656  -4.6357  -4.4038  -4.2093  -4.1254
    -4.1239  -4.1203  -4.1091  -4.0982  -4.0933  -4.0866  -4.0802  -4.0749
    -4.0671  -4.0464  -4.0142  -3.8662   0.1297   0.1915   0.4155   0.5249
     0.7556   0.7738   0.8956   0.9566   1.1322   1.2452   1.3087   1.3620
     1.5708   1.6809   1.7041   1.8082   1.8645   1.9094   1.9315   1.9653
     2.0727   2.1018   2.1800   2.2108   2.2563   2.3015   2.3180   2.3458
     2.3679   2.3797   2.4320   2.4513   2.5833   2.6118   2.6941   2.7971

          k = 0.2500-0.4689 0.0000 ( 48950 PWs)   bands (ev):

   -17.2584 -17.2584 -17.2578 -17.2578 -13.0933 -13.0933 -13.0848 -13.0848
   -13.0805 -13.0805 -13.0748 -13.0748 -13.0393 -13.0393 -13.0387 -13.0387
   -13.0367 -13.0367 -13.0365 -13.0365 -13.0304 -13.0304 -13.0301 -13.0301
    -8.6108  -8.6108  -8.4011  -8.4011  -8.2764  -8.2764  -8.2248  -8.2248
    -8.1850  -8.1850  -8.0445  -8.0445  -4.5106  -4.5106  -4.1513  -4.1513
    -4.1207  -4.1207  -4.1008  -4.1008  -4.0928  -4.0928  -4.0798  -4.0798
    -4.0670  -4.0670  -3.9104  -3.9104   0.1141   0.1141   0.3385   0.3385
     0.4833   0.4833   1.1627   1.1627   1.2409   1.2409   1.3576   1.3576
     1.6388   1.6388   1.8413   1.8413   1.9492   1.9492   2.0374   2.0374
     2.1158   2.1158   2.2081   2.2081   2.2128   2.2128   2.2670   2.2670
     2.3368   2.3368   2.3867   2.3867   2.6446   2.6446   2.8622   2.8622

          k = 0.2500-0.4689 0.2261 ( 48994 PWs)   bands (ev):

   -17.2582 -17.2582 -17.2580 -17.2580 -13.0904 -13.0904 -13.0860 -13.0860
   -13.0798 -13.0798 -13.0771 -13.0771 -13.0392 -13.0392 -13.0389 -13.0389
   -13.0366 -13.0366 -13.0365 -13.0365 -13.0303 -13.0303 -13.0301 -13.0301
    -8.5760  -8.5760  -8.4834  -8.4834  -8.2376  -8.2376  -8.2261  -8.2261
    -8.1457  -8.1457  -8.0732  -8.0732  -4.4108  -4.4108  -4.2155  -4.2155
    -4.1192  -4.1192  -4.1092  -4.1092  -4.0859  -4.0859  -4.0773  -4.0773
    -4.0567  -4.0567  -3.9941  -3.9941   0.3519   0.3519   0.4226   0.4226
     0.5093   0.5093   1.1583   1.1583   1.2072   1.2072   1.2332   1.2332
     1.5673   1.5673   1.7603   1.7603   1.8944   1.8944   1.9905   1.9905
     2.0824   2.0824   2.1164   2.1164   2.2971   2.2971   2.3344   2.3344
     2.3654   2.3654   2.4150   2.4150   2.6223   2.6223   2.6589   2.6589

          k =-0.5000 0.0000 0.0000 ( 48876 PWs)   bands (ev):

   -17.2588 -17.2588 -17.2574 -17.2574 -13.0918 -13.0918 -13.0825 -13.0825
   -13.0819 -13.0819 -13.0770 -13.0770 -13.0393 -13.0393 -13.0387 -13.0387
   -13.0367 -13.0367 -13.0365 -13.0365 -13.0304 -13.0304 -13.0301 -13.0301
    -8.6220  -8.6220  -8.4258  -8.4258  -8.2743  -8.2743  -8.1764  -8.1764
    -8.1541  -8.1541  -8.0848  -8.0848  -4.5247  -4.5247  -4.1652  -4.1652
    -4.1202  -4.1202  -4.0996  -4.0996  -4.0752  -4.0752  -4.0683  -4.0683
    -4.0527  -4.0527  -3.9617  -3.9617   0.1243   0.1243   0.5956   0.5956
     0.8059   0.8059   0.9246   0.9246   1.1217   1.1217   1.2673   1.2673
     1.5986   1.5986   1.8150   1.8150   1.9137   1.9137   2.0256   2.0256
     2.0558   2.0558   2.2115   2.2115   2.2208   2.2208   2.2813   2.2813
     2.3719   2.3719   2.4485   2.4485   2.5024   2.5024   2.7547   2.7547

          k =-0.5000 0.0000 0.2261 ( 48906 PWs)   bands (ev):

   -17.2587 -17.2587 -17.2575 -17.2575 -13.0884 -13.0884 -13.0831 -13.0831
   -13.0818 -13.0818 -13.0800 -13.0800 -13.0392 -13.0392 -13.0389 -13.0389
   -13.0366 -13.0366 -13.0365 -13.0365 -13.0303 -13.0303 -13.0302 -13.0302
    -8.5892  -8.5892  -8.5016  -8.5016  -8.2027  -8.2027  -8.1773  -8.1773
    -8.1529  -8.1529  -8.1136  -8.1136  -4.4189  -4.4189  -4.2107  -4.2107
    -4.1229  -4.1229  -4.1110  -4.1110  -4.0824  -4.0824  -4.0697  -4.0697
    -4.0502  -4.0502  -4.0366  -4.0366   0.4583   0.4583   0.6394   0.6394
     0.7472   0.7472   0.9428   0.9428   1.0349   1.0349   1.1697   1.1697
     1.6814   1.6814   1.8248   1.8248   1.8473   1.8473   1.9432   1.9432
     1.9570   1.9570   2.0847   2.0847   2.3064   2.3064   2.3302   2.3302
     2.3780   2.3780   2.4297   2.4297   2.5042   2.5042   2.5414   2.5414

          k =-0.5000 0.2345 0.0000 ( 48932 PWs)   bands (ev):

   -17.2586 -17.2586 -17.2576 -17.2576 -13.0933 -13.0933 -13.0848 -13.0848
   -13.0805 -13.0805 -13.0748 -13.0748 -13.0393 -13.0393 -13.0387 -13.0387
   -13.0367 -13.0367 -13.0365 -13.0365 -13.0304 -13.0304 -13.0301 -13.0301
    -8.6043  -8.6043  -8.3898  -8.3898  -8.2785  -8.2785  -8.2327  -8.2327
    -8.1974  -8.1974  -8.0453  -8.0453  -4.5054  -4.5054  -4.1532  -4.1532
    -4.1079  -4.1079  -4.1076  -4.1076  -4.0867  -4.0867  -4.0755  -4.0755
    -4.0595  -4.0595  -3.9224  -3.9224   0.1140   0.1140   0.3278   0.3278
     0.4933   0.4933   1.1198   1.1198   1.2503   1.2503   1.4273   1.4273
     1.6511   1.6511   1.8613   1.8613   1.9802   1.9802   2.0540   2.0540
     2.0809   2.0809   2.1885   2.1885   2.2021   2.2021   2.2586   2.2586
     2.3078   2.3078   2.3938   2.3938   2.6037   2.6037   2.8238   2.8238

          k =-0.5000 0.2345 0.2261 ( 48884 PWs)   bands (ev):

   -17.2585 -17.2585 -17.2576 -17.2576 -13.0904 -13.0904 -13.0860 -13.0860
   -13.0798 -13.0798 -13.0771 -13.0771 -13.0391 -13.0391 -13.0389 -13.0389
   -13.0366 -13.0366 -13.0365 -13.0365 -13.0303 -13.0303 -13.0301 -13.0301
    -8.5693  -8.5693  -8.4757  -8.4757  -8.2462  -8.2462  -8.2296  -8.2296
    -8.1520  -8.1520  -8.0746  -8.0746  -4.4045  -4.4045  -4.2086  -4.2086
    -4.1112  -4.1112  -4.1046  -4.1046  -4.0926  -4.0926  -4.0743  -4.0743
    -4.0503  -4.0503  -4.0073  -4.0073   0.3521   0.3521   0.4146   0.4146
     0.5088   0.5088   1.0969   1.0969   1.2357   1.2357   1.2730   1.2730
     1.5973   1.5973   1.7876   1.7876   1.9007   1.9007   2.0535   2.0535
     2.1072   2.1072   2.1547   2.1547   2.2573   2.2573   2.2824   2.2824
     2.3223   2.3223   2.4085   2.4085   2.5693   2.5693   2.5975   2.5975

          k =-0.5000-0.4689 0.0000 ( 49000 PWs)   bands (ev):

   -17.2584 -17.2584 -17.2578 -17.2578 -13.0944 -13.0944 -13.0863 -13.0863
   -13.0793 -13.0793 -13.0733 -13.0733 -13.0393 -13.0393 -13.0387 -13.0387
   -13.0367 -13.0367 -13.0365 -13.0365 -13.0304 -13.0304 -13.0301 -13.0301
    -8.5832  -8.5832  -8.3096  -8.3096  -8.2977  -8.2977  -8.2847  -8.2847
    -8.2612  -8.2612  -8.0220  -8.0220  -4.4865  -4.4865  -4.1354  -4.1354
    -4.1148  -4.1148  -4.1029  -4.1029  -4.0865  -4.0865  -4.0784  -4.0784
    -4.0742  -4.0742  -3.8897  -3.8897   0.1011   0.1011   0.1661   0.1661
     0.3211   0.3211   1.1669   1.1669   1.2935   1.2935   1.6237   1.6237
     1.6582   1.6582   1.9165   1.9165   1.9672   1.9672   2.0201   2.0201
     2.1175   2.1175   2.1714   2.1714   2.2093   2.2093   2.2277   2.2277
     2.2691   2.2691   2.4274   2.4274   2.6871   2.6871   2.9342   2.9342

          k =-0.5000-0.4689 0.2261 ( 48968 PWs)   bands (ev):

   -17.2582 -17.2582 -17.2579 -17.2579 -13.0918 -13.0918 -13.0877 -13.0877
   -13.0784 -13.0784 -13.0755 -13.0755 -13.0391 -13.0391 -13.0389 -13.0389
   -13.0366 -13.0366 -13.0365 -13.0365 -13.0303 -13.0303 -13.0301 -13.0301
    -8.5451  -8.5451  -8.4400  -8.4400  -8.2843  -8.2843  -8.2836  -8.2836
    -8.1498  -8.1498  -8.0548  -8.0548  -4.3903  -4.3903  -4.2047  -4.2047
    -4.1115  -4.1115  -4.1093  -4.1093  -4.0752  -4.0752  -4.0661  -4.0661
    -4.0648  -4.0648  -3.9823  -3.9823   0.1980   0.1980   0.2589   0.2589
     0.4842   0.4842   1.1831   1.1831   1.2333   1.2333   1.3462   1.3462
     1.6238   1.6238   1.7741   1.7741   2.0381   2.0381   2.0629   2.0629
     2.1309   2.1309   2.1318   2.1318   2.2200   2.2200   2.2282   2.2282
     2.3424   2.3424   2.4265   2.4265   2.6583   2.6583   2.7167   2.7167

     highest occupied level (ev):     3.4133

!    total energy              =   -8165.86051237 Ry
     estimated scf accuracy    <          4.9E-09 Ry

     The total energy is the sum of the following terms:
     one-electron contribution =    -324.91752239 Ry
     hartree contribution      =     251.21123324 Ry
     xc contribution           =    -792.77253441 Ry
     ewald contribution        =    -649.76316883 Ry
     one-center paw contrib.   =   -6649.61851998 Ry

     convergence has been achieved in  12 iterations

     Forces acting on atoms (cartesian axes, Ry/au):

     atom    1 type  1   force =     0.00023458   -0.00021148   -0.00000000
     atom    2 type  1   force =    -0.00023458    0.00021148    0.00000000
     atom    3 type  1   force =     0.00023458    0.00021148    0.00000000
     atom    4 type  1   force =    -0.00023458   -0.00021148    0.00000000
     atom    5 type  2   force =    -0.00000000    0.00000000   -0.00000000
     atom    6 type  2   force =     0.00000000    0.00000000    0.00000000
     atom    7 type  2   force =    -0.00000000   -0.00000000    0.00000000
     atom    8 type  2   force =     0.00000000    0.00000000    0.00000000
     atom    9 type  3   force =    -0.00081333   -0.00019377    0.00000000
     atom   10 type  3   force =     0.00081333    0.00019377    0.00000000
     atom   11 type  3   force =    -0.00081333    0.00019377    0.00000000
     atom   12 type  3   force =     0.00081333   -0.00019377    0.00000000
     atom   13 type  3   force =     0.00010271    0.00002175   -0.00003450
     atom   14 type  3   force =    -0.00010271   -0.00002175   -0.00003450
     atom   15 type  3   force =     0.00010271   -0.00002175    0.00003450
     atom   16 type  3   force =    -0.00010271    0.00002175    0.00003450
     atom   17 type  3   force =    -0.00010271   -0.00002175    0.00003450
     atom   18 type  3   force =     0.00010271    0.00002175    0.00003450
     atom   19 type  3   force =    -0.00010271    0.00002175   -0.00003450
     atom   20 type  3   force =     0.00010271   -0.00002175   -0.00003450

     Total force =     0.001815     Total SCF correction =     0.000017


     Computing stress (Cartesian axis) and pressure

          total   stress  (Ry/bohr**3)                   (kbar)     P=       -0.10
  -0.00000079   0.00000000   0.00000000           -0.12        0.00        0.00
   0.00000000   0.00000240   0.00000000            0.00        0.35        0.00
   0.00000000   0.00000000  -0.00000362            0.00        0.00       -0.53


     BFGS Geometry Optimization
     Energy error            =      6.3E-06 Ry
     Gradient error          =      8.1E-04 Ry/Bohr
     Cell gradient error     =      5.3E-01 kbar

     number of scf cycles    =   1
     number of bfgs steps    =   0

     enthalpy           new  =   -8165.8605123725 Ry

     new trust radius        =       0.0014277592 bohr
     new conv_thr            =       0.0000001000 Ry

     new unit-cell volume =   6237.99776 a.u.^3 (   924.37590 Ang^3 )
     density =      5.17947 g/cm^3

CELL_PARAMETERS (angstrom)
   8.377590340   0.000000000   0.000000000
   0.000000000   8.933046593   0.000000000
   0.000000000   0.000000000  12.351789864

ATOMIC_POSITIONS (crystal)
Cs               0.4666390611        0.4169508538        0.2500000000
Cs               0.5333609389        0.5830491462        0.7500000000
Cs              -0.0333609389        0.0830491462        0.7500000000
Cs               1.0333609389        0.9169508538        0.2500000000
Pb               0.5000000000        0.0000000000       -0.0000000000
Pb               0.5000000000        0.0000000000        0.5000000000
Pb              -0.0000000000        0.5000000000        0.0000000000
Pb               0.0000000000        0.5000000000        0.5000000000
I                0.5862810738        0.0074142653        0.2500000000
I                0.4137189262        0.9925857347        0.7500000000
I                0.0862810738        0.4925857347        0.7500000000
I                0.9137189262        0.5074142653        0.2500000000
I                0.6875961767        0.3053853989        0.9596632200
I                0.3124038233        0.6946146011        0.4596632200
I                0.1875961767        0.1946146011        0.0403367800
I                0.8124038233        0.8053853989        0.5403367800
I                0.3124038233        0.6946146011        0.0403367800
I                0.6875961767        0.3053853989        0.5403367800
I                0.8124038233        0.8053853989        0.9596632200
I                0.1875961767        0.1946146011        0.4596632200



     Writing config-only to output data dir ./tmp/cspbi3_gamma_s2.save/ :
     XML data file
     NEW-OLD atomic charge density approx. for the potential
     New effective cutoffs (rho, wfc):  480.05   60.01

     total cpu time spent up to now is     3484.9 secs

     Self-consistent Calculation

     iteration #  1     ecut=    60.00 Ry     beta= 0.50
     Davidson diagonalization with overlap
     ethr =  1.00E-06,  avg # of iterations =  2.0

     Threshold (ethr) on eigenvalues was too large:
     Diagonalizing with lowered threshold

     Davidson diagonalization with overlap
     ethr =  1.17E-10,  avg # of iterations =  6.1

     total cpu time spent up to now is     4111.8 secs

     total energy              =   -8165.86051852 Ry
     estimated scf accuracy    <       0.00000020 Ry

     iteration #  2     ecut=    60.00 Ry     beta= 0.50
     Davidson diagonalization with overlap
     ethr =  1.14E-10,  avg # of iterations =  4.4

     total cpu time spent up to now is     4373.9 secs

     End of self-consistent calculation

          k = 0.0000 0.0000 0.0000 ( 49019 PWs)   bands (ev):

   -17.2591 -17.2584 -17.2568 -17.2563 -13.0942 -13.0918 -13.0914 -13.0869
   -13.0803 -13.0730 -13.0708 -13.0706 -13.0384 -13.0382 -13.0379 -13.0376
   -13.0360 -13.0358 -13.0354 -13.0352 -13.0297 -13.0294 -13.0291 -13.0287
    -8.7805  -8.5905  -8.3269  -8.2882  -8.2815  -8.2632  -8.2616  -8.2429
    -8.2287  -8.0556  -8.0486  -8.0413  -4.9770  -4.4690  -4.1308  -4.1266
    -4.1229  -4.1207  -4.1176  -4.1127  -4.1081  -4.1034  -4.0939  -4.0721
    -4.0598  -4.0523  -3.9138  -3.4701  -0.0126   0.0294   0.0505   0.1806
     0.1888   0.2763   1.1029   1.3954   1.4060   1.4291   1.4431   1.4934
     1.7270   1.9083   1.9267   1.9279   2.0121   2.0218   2.0258   2.0578
     2.0654   2.0743   2.0993   2.1005   2.1571   2.3538   2.3749   2.4151
     2.4391   2.4415   2.4625   2.4911   2.6814   2.6944   2.9635   3.4141

          k = 0.0000 0.0000 0.2261 ( 48966 PWs)   bands (ev):

   -17.2589 -17.2586 -17.2567 -17.2565 -13.0916 -13.0914 -13.0907 -13.0837
   -13.0835 -13.0765 -13.0708 -13.0707 -13.0383 -13.0381 -13.0380 -13.0378
   -13.0359 -13.0358 -13.0353 -13.0352 -13.0296 -13.0295 -13.0290 -13.0288
    -8.7463  -8.6575  -8.3116  -8.2835  -8.2777  -8.2698  -8.2432  -8.2331
    -8.1998  -8.0926  -8.0515  -8.0444  -4.8584  -4.6038  -4.1309  -4.1300
    -4.1286  -4.1265  -4.1141  -4.1055  -4.0874  -4.0872  -4.0744  -4.0696
    -4.0690  -4.0617  -3.8550  -3.6244   0.0541   0.0833   0.0950   0.1539
     0.4198   0.6285   1.1022   1.1734   1.2858   1.4597   1.4698   1.5146
     1.5448   1.6654   1.8418   1.9256   1.9469   1.9750   2.0533   2.0632
     2.0834   2.1203   2.1583   2.1635   2.2542   2.2654   2.3187   2.3664
     2.4019   2.4090   2.4426   2.4607   2.6057   2.6695   2.9916   3.1400

          k = 0.0000 0.2345 0.0000 ( 48996 PWs)   bands (ev):

   -17.2588 -17.2581 -17.2571 -17.2566 -13.0932 -13.0898 -13.0884 -13.0869
   -13.0794 -13.0739 -13.0738 -13.0735 -13.0384 -13.0382 -13.0378 -13.0377
   -13.0359 -13.0357 -13.0355 -13.0353 -13.0296 -13.0293 -13.0292 -13.0289
    -8.7420  -8.5490  -8.4763  -8.3191  -8.2774  -8.2653  -8.2187  -8.2017
    -8.1704  -8.0847  -8.0689  -8.0565  -4.8477  -4.3684  -4.2307  -4.1350
    -4.1276  -4.1205  -4.1166  -4.1063  -4.0873  -4.0858  -4.0801  -4.0785
    -4.0708  -4.0340  -3.9958  -3.6375   0.0441   0.2052   0.2117   0.3093
     0.3754   0.4019   1.1708   1.2800   1.2808   1.3536   1.4313   1.4871
     1.4990   1.6021   1.7467   1.8661   1.9740   1.9752   2.0181   2.0417
     2.1134   2.1168   2.1648   2.1690   2.1838   2.2841   2.3294   2.3337
     2.3886   2.4055   2.4516   2.5096   2.6955   2.7217   2.7416   3.1286

          k = 0.0000 0.2345 0.2261 ( 48994 PWs)   bands (ev):

   -17.2586 -17.2583 -17.2570 -17.2568 -13.0897 -13.0889 -13.0885 -13.0843
   -13.0828 -13.0775 -13.0737 -13.0736 -13.0383 -13.0381 -13.0380 -13.0378
   -13.0358 -13.0358 -13.0354 -13.0353 -13.0295 -13.0294 -13.0291 -13.0289
    -8.7077  -8.6182  -8.4502  -8.3823  -8.2182  -8.2174  -8.2094  -8.1951
    -8.1815  -8.0970  -8.0807  -8.0726  -4.7349  -4.4929  -4.1591  -4.1302
    -4.1289  -4.1181  -4.1144  -4.1095  -4.0961  -4.0863  -4.0845  -4.0705
    -4.0664  -4.0535  -3.9702  -3.7797   0.2467   0.2707   0.3209   0.3466
     0.4914   0.5749   1.1285   1.2146   1.2580   1.3113   1.3258   1.4092
     1.5178   1.6049   1.6246   1.8234   1.8240   1.9361   1.9370   2.0242
     2.0369   2.1069   2.1161   2.1389   2.2656   2.3136   2.3540   2.3728
     2.3987   2.4046   2.4319   2.4793   2.6522   2.6918   2.7260   2.8796

          k = 0.0000-0.4689 0.0000 ( 48914 PWs)   bands (ev):

   -17.2579 -17.2579 -17.2574 -17.2574 -13.0909 -13.0909 -13.0815 -13.0815
   -13.0809 -13.0809 -13.0761 -13.0761 -13.0383 -13.0383 -13.0377 -13.0377
   -13.0357 -13.0357 -13.0355 -13.0355 -13.0294 -13.0294 -13.0291 -13.0291
    -8.6331  -8.6331  -8.4410  -8.4410  -8.2716  -8.2716  -8.1534  -8.1534
    -8.1356  -8.1356  -8.0901  -8.0901  -4.5341  -4.5341  -4.1677  -4.1677
    -4.1225  -4.1225  -4.0995  -4.0995  -4.0965  -4.0965  -4.0811  -4.0811
    -4.0618  -4.0618  -3.9311  -3.9311   0.1212   0.1212   0.6445   0.6445
     0.8303   0.8303   0.9118   0.9118   0.9934   0.9934   1.3212   1.3212
     1.6195   1.6195   1.7378   1.7378   1.8470   1.8470   2.0206   2.0206
     2.0912   2.0912   2.1253   2.1253   2.2220   2.2220   2.3393   2.3393
     2.3949   2.3949   2.4526   2.4526   2.6392   2.6392   2.8582   2.8582

          k = 0.0000-0.4689 0.2261 ( 48966 PWs)   bands (ev):

   -17.2578 -17.2578 -17.2575 -17.2575 -13.0875 -13.0875 -13.0821 -13.0821
   -13.0808 -13.0808 -13.0791 -13.0791 -13.0382 -13.0382 -13.0379 -13.0379
   -13.0356 -13.0356 -13.0356 -13.0356 -13.0293 -13.0293 -13.0292 -13.0292
    -8.6003  -8.6003  -8.5136  -8.5136  -8.2024  -8.2024  -8.1502  -8.1502
    -8.1395  -8.1395  -8.1187  -8.1187  -4.4308  -4.4308  -4.2268  -4.2268
    -4.1254  -4.1254  -4.1102  -4.1102  -4.0952  -4.0952  -4.0783  -4.0783
    -4.0584  -4.0584  -4.0040  -4.0040   0.4569   0.4569   0.6864   0.6864
     0.7658   0.7658   0.9259   0.9259   0.9676   0.9676   1.2240   1.2240
     1.6715   1.6715   1.7213   1.7213   1.7958   1.7958   1.8931   1.8931
     1.9416   1.9416   1.9802   1.9802   2.3219   2.3219   2.3875   2.3875
     2.3987   2.3987   2.4742   2.4742   2.6490   2.6490   2.7058   2.7058

          k = 0.2500 0.0000 0.0000 ( 48923 PWs)   bands (ev):

   -17.2588 -17.2583 -17.2569 -17.2566 -13.0932 -13.0899 -13.0885 -13.0869
   -13.0794 -13.0739 -13.0738 -13.0735 -13.0384 -13.0382 -13.0378 -13.0377
   -13.0359 -13.0357 -13.0355 -13.0353 -13.0296 -13.0293 -13.0292 -13.0289
    -8.7386  -8.5446  -8.4596  -8.2905  -8.2777  -8.2682  -8.2537  -8.2315
    -8.1566  -8.0891  -8.0743  -8.0562  -4.8456  -4.3605  -4.2065  -4.1268
    -4.1243  -4.1184  -4.1143  -4.1077  -4.1073  -4.0880  -4.0831  -4.0723
    -4.0641  -4.0411  -3.9919  -3.6408   0.0428   0.1850   0.2121   0.3201
     0.3342   0.4689   1.1407   1.1826   1.3123   1.3837   1.4975   1.5015
     1.5066   1.6116   1.8270   1.8511   1.9810   1.9893   2.0176   2.0351
     2.1167   2.1276   2.1752   2.2103   2.2173   2.2260   2.2394   2.3626
     2.3772   2.4071   2.4526   2.5051   2.6215   2.6820   2.7046   3.0488

          k = 0.2500 0.0000 0.2261 ( 48985 PWs)   bands (ev):

   -17.2587 -17.2584 -17.2569 -17.2567 -13.0897 -13.0889 -13.0885 -13.0842
   -13.0828 -13.0774 -13.0738 -13.0736 -13.0383 -13.0381 -13.0380 -13.0378
   -13.0358 -13.0358 -13.0354 -13.0353 -13.0295 -13.0294 -13.0291 -13.0289
    -8.7043  -8.6146  -8.4332  -8.3644  -8.2501  -8.2390  -8.2078  -8.1999
    -8.1685  -8.0972  -8.0847  -8.0773  -4.7318  -4.4870  -4.1416  -4.1343
    -4.1303  -4.1210  -4.1012  -4.0993  -4.0933  -4.0875  -4.0800  -4.0674
    -4.0644  -4.0617  -3.9768  -3.7873   0.2157   0.2610   0.3179   0.4140
     0.4751   0.5689   1.1046   1.1527   1.2172   1.3423   1.3877   1.3927
     1.5804   1.6208   1.6417   1.7971   1.9236   1.9417   2.0358   2.0365
     2.0631   2.0863   2.1522   2.1906   2.2495   2.2508   2.3101   2.3602
     2.3835   2.4005   2.4203   2.4734   2.5762   2.6007   2.6906   2.7734

          k = 0.2500 0.2345 0.0000 ( 48923 PWs)   bands (ev):

   -17.2586 -17.2580 -17.2572 -17.2568 -13.0936 -13.0901 -13.0874 -13.0847
   -13.0793 -13.0764 -13.0753 -13.0722 -13.0384 -13.0383 -13.0378 -13.0377
   -13.0358 -13.0357 -13.0355 -13.0354 -13.0296 -13.0292 -13.0292 -13.0289
    -8.7039  -8.5044  -8.5019  -8.2858  -8.2820  -8.2772  -8.2625  -8.2584
    -8.1460  -8.1070  -8.0963  -8.0357  -4.7439  -4.2958  -4.2884  -4.1240
    -4.1167  -4.1153  -4.1148  -4.1041  -4.0954  -4.0820  -4.0783  -4.0763
    -4.0730  -4.0240  -4.0129  -3.7304   0.0605   0.0997   0.1767   0.2454
     0.7057   0.8199   0.8555   1.0300   1.2589   1.2696   1.2945   1.5468
     1.5602   1.7073   1.7949   1.9152   1.9580   1.9731   2.0471   2.0654
     2.0687   2.1114   2.1322   2.1417   2.2188   2.2759   2.3211   2.3225
     2.3344   2.3602   2.4431   2.4724   2.6031   2.7108   2.7403   3.0496

          k = 0.2500 0.2345 0.2261 ( 48974 PWs)   bands (ev):

   -17.2584 -17.2581 -17.2571 -17.2569 -13.0909 -13.0879 -13.0870 -13.0836
   -13.0816 -13.0791 -13.0751 -13.0738 -13.0382 -13.0381 -13.0380 -13.0378
   -13.0358 -13.0357 -13.0355 -13.0354 -13.0295 -13.0293 -13.0292 -13.0290
    -8.6691  -8.5778  -8.4703  -8.3855  -8.2733  -8.2685  -8.2066  -8.1752
    -8.1512  -8.1161  -8.1018  -8.0653  -4.6352  -4.4030  -4.2089  -4.1250
    -4.1234  -4.1199  -4.1086  -4.0977  -4.0928  -4.0862  -4.0798  -4.0745
    -4.0666  -4.0459  -4.0138  -3.8656   0.1301   0.1920   0.4154   0.5248
     0.7560   0.7741   0.8959   0.9570   1.1326   1.2455   1.3089   1.3623
     1.5712   1.6810   1.7045   1.8084   1.8648   1.9098   1.9318   1.9657
     2.0730   2.1020   2.1804   2.2112   2.2567   2.3019   2.3184   2.3461
     2.3683   2.3802   2.4324   2.4517   2.5838   2.6123   2.6945   2.7976

          k = 0.2500-0.4689 0.0000 ( 48950 PWs)   bands (ev):

   -17.2579 -17.2579 -17.2574 -17.2574 -13.0924 -13.0924 -13.0838 -13.0838
   -13.0795 -13.0795 -13.0738 -13.0738 -13.0383 -13.0383 -13.0377 -13.0377
   -13.0357 -13.0357 -13.0355 -13.0355 -13.0294 -13.0294 -13.0291 -13.0291
    -8.6107  -8.6107  -8.4005  -8.4005  -8.2765  -8.2765  -8.2244  -8.2244
    -8.1845  -8.1845  -8.0442  -8.0442  -4.5103  -4.5103  -4.1507  -4.1507
    -4.1202  -4.1202  -4.1003  -4.1003  -4.0924  -4.0924  -4.0793  -4.0793
    -4.0666  -4.0666  -3.9097  -3.9097   0.1136   0.1136   0.3388   0.3388
     0.4839   0.4839   1.1629   1.1629   1.2411   1.2411   1.3580   1.3580
     1.6391   1.6391   1.8416   1.8416   1.9497   1.9497   2.0376   2.0376
     2.1162   2.1162   2.2085   2.2085   2.2133   2.2133   2.2675   2.2675
     2.3371   2.3371   2.3872   2.3872   2.6451   2.6451   2.8632   2.8632

          k = 0.2500-0.4689 0.2261 ( 48994 PWs)   bands (ev):

   -17.2578 -17.2578 -17.2575 -17.2575 -13.0894 -13.0894 -13.0850 -13.0850
   -13.0789 -13.0789 -13.0762 -13.0762 -13.0382 -13.0382 -13.0379 -13.0379
   -13.0356 -13.0356 -13.0356 -13.0356 -13.0293 -13.0293 -13.0292 -13.0292
    -8.5758  -8.5758  -8.4831  -8.4831  -8.2373  -8.2373  -8.2257  -8.2257
    -8.1454  -8.1454  -8.0729  -8.0729  -4.4104  -4.4104  -4.2149  -4.2149
    -4.1187  -4.1187  -4.1088  -4.1088  -4.0855  -4.0855  -4.0768  -4.0768
    -4.0562  -4.0562  -3.9936  -3.9936   0.3522   0.3522   0.4229   0.4229
     0.5094   0.5094   1.1587   1.1587   1.2075   1.2075   1.2334   1.2334
     1.5676   1.5676   1.7606   1.7606   1.8946   1.8946   1.9909   1.9909
     2.0828   2.0828   2.1167   2.1167   2.2976   2.2976   2.3347   2.3347
     2.3659   2.3659   2.4153   2.4153   2.6227   2.6227   2.6595   2.6595

          k =-0.5000 0.0000 0.0000 ( 48876 PWs)   bands (ev):

   -17.2583 -17.2583 -17.2570 -17.2570 -13.0909 -13.0909 -13.0815 -13.0815
   -13.0809 -13.0809 -13.0761 -13.0761 -13.0383 -13.0383 -13.0377 -13.0377
   -13.0357 -13.0357 -13.0355 -13.0355 -13.0294 -13.0294 -13.0291 -13.0291
    -8.6218  -8.6218  -8.4253  -8.4253  -8.2744  -8.2744  -8.1760  -8.1760
    -8.1537  -8.1537  -8.0845  -8.0845  -4.5244  -4.5244  -4.1646  -4.1646
    -4.1197  -4.1197  -4.0991  -4.0991  -4.0747  -4.0747  -4.0678  -4.0678
    -4.0523  -4.0523  -3.9609  -3.9609   0.1237   0.1237   0.5960   0.5960
     0.8065   0.8065   0.9248   0.9248   1.1222   1.1222   1.2675   1.2675
     1.5988   1.5988   1.8154   1.8154   1.9142   1.9142   2.0261   2.0261
     2.0563   2.0563   2.2118   2.2118   2.2213   2.2213   2.2817   2.2817
     2.3721   2.3721   2.4488   2.4488   2.5027   2.5027   2.7556   2.7556

          k =-0.5000 0.0000 0.2261 ( 48906 PWs)   bands (ev):

   -17.2583 -17.2583 -17.2570 -17.2570 -13.0875 -13.0875 -13.0821 -13.0821
   -13.0808 -13.0808 -13.0790 -13.0790 -13.0382 -13.0382 -13.0379 -13.0379
   -13.0356 -13.0356 -13.0356 -13.0356 -13.0293 -13.0293 -13.0292 -13.0292
    -8.5890  -8.5890  -8.5013  -8.5013  -8.2026  -8.2026  -8.1768  -8.1768
    -8.1524  -8.1524  -8.1133  -8.1133  -4.4185  -4.4185  -4.2100  -4.2100
    -4.1224  -4.1224  -4.1105  -4.1105  -4.0819  -4.0819  -4.0693  -4.0693
    -4.0497  -4.0497  -4.0361  -4.0361   0.4581   0.4581   0.6398   0.6398
     0.7477   0.7477   0.9430   0.9430   1.0352   1.0352   1.1701   1.1701
     1.6817   1.6817   1.8252   1.8252   1.8477   1.8477   1.9437   1.9437
     1.9575   1.9575   2.0851   2.0851   2.3067   2.3067   2.3305   2.3305
     2.3783   2.3783   2.4301   2.4301   2.5045   2.5045   2.5418   2.5418

          k =-0.5000 0.2345 0.0000 ( 48932 PWs)   bands (ev):

   -17.2581 -17.2581 -17.2571 -17.2571 -13.0924 -13.0924 -13.0838 -13.0838
   -13.0795 -13.0795 -13.0738 -13.0738 -13.0383 -13.0383 -13.0377 -13.0377
   -13.0357 -13.0357 -13.0355 -13.0355 -13.0294 -13.0294 -13.0291 -13.0291
    -8.6041  -8.6041  -8.3893  -8.3893  -8.2786  -8.2786  -8.2323  -8.2323
    -8.1969  -8.1969  -8.0450  -8.0450  -4.5051  -4.5051  -4.1527  -4.1527
    -4.1074  -4.1074  -4.1071  -4.1071  -4.0862  -4.0862  -4.0751  -4.0751
    -4.0591  -4.0591  -3.9216  -3.9216   0.1135   0.1135   0.3282   0.3282
     0.4939   0.4939   1.1201   1.1201   1.2505   1.2505   1.4278   1.4278
     1.6514   1.6514   1.8617   1.8617   1.9806   1.9806   2.0546   2.0546
     2.0813   2.0813   2.1888   2.1888   2.2025   2.2025   2.2590   2.2590
     2.3081   2.3081   2.3942   2.3942   2.6041   2.6041   2.8247   2.8247

          k =-0.5000 0.2345 0.2261 ( 48884 PWs)   bands (ev):

   -17.2581 -17.2581 -17.2572 -17.2572 -13.0894 -13.0894 -13.0850 -13.0850
   -13.0789 -13.0789 -13.0762 -13.0762 -13.0382 -13.0382 -13.0379 -13.0379
   -13.0356 -13.0356 -13.0355 -13.0355 -13.0293 -13.0293 -13.0292 -13.0292
    -8.5692  -8.5692  -8.4754  -8.4754  -8.2458  -8.2458  -8.2292  -8.2292
    -8.1517  -8.1517  -8.0743  -8.0743  -4.4041  -4.4041  -4.2080  -4.2080
    -4.1108  -4.1108  -4.1041  -4.1041  -4.0921  -4.0921  -4.0739  -4.0739
    -4.0498  -4.0498  -4.0068  -4.0068   0.3524   0.3524   0.4149   0.4149
     0.5090   0.5090   1.0972   1.0972   1.2359   1.2359   1.2734   1.2734
     1.5976   1.5976   1.7879   1.7879   1.9010   1.9010   2.0538   2.0538
     2.1076   2.1076   2.1551   2.1551   2.2576   2.2576   2.2828   2.2828
     2.3226   2.3226   2.4088   2.4088   2.5698   2.5698   2.5979   2.5979

          k =-0.5000-0.4689 0.0000 ( 49000 PWs)   bands (ev):

   -17.2579 -17.2579 -17.2574 -17.2574 -13.0935 -13.0935 -13.0854 -13.0854
   -13.0783 -13.0783 -13.0723 -13.0723 -13.0383 -13.0383 -13.0377 -13.0377
   -13.0357 -13.0357 -13.0355 -13.0355 -13.0294 -13.0294 -13.0291 -13.0291
    -8.5831  -8.5831  -8.3091  -8.3091  -8.2974  -8.2974  -8.2842  -8.2842
    -8.2610  -8.2610  -8.0217  -8.0217  -4.4862  -4.4862  -4.1348  -4.1348
    -4.1143  -4.1143  -4.1024  -4.1024  -4.0861  -4.0861  -4.0779  -4.0779
    -4.0737  -4.0737  -3.8889  -3.8889   0.1007   0.1007   0.1665   0.1665
     0.3217   0.3217   1.1670   1.1670   1.2938   1.2938   1.6242   1.6242
     1.6587   1.6587   1.9170   1.9170   1.9673   1.9673   2.0205   2.0205
     2.1181   2.1181   2.1718   2.1718   2.2097   2.2097   2.2281   2.2281
     2.2693   2.2693   2.4278   2.4278   2.6876   2.6876   2.9351   2.9351

          k =-0.5000-0.4689 0.2261 ( 48968 PWs)   bands (ev):

   -17.2578 -17.2578 -17.2575 -17.2575 -13.0908 -13.0908 -13.0867 -13.0867
   -13.0775 -13.0775 -13.0745 -13.0745 -13.0382 -13.0382 -13.0379 -13.0379
   -13.0356 -13.0356 -13.0355 -13.0355 -13.0293 -13.0293 -13.0291 -13.0291
    -8.5450  -8.5450  -8.4398  -8.4398  -8.2838  -8.2838  -8.2831  -8.2831
    -8.1495  -8.1495  -8.0545  -8.0545  -4.3899  -4.3899  -4.2042  -4.2042
    -4.1110  -4.1110  -4.1088  -4.1088  -4.0747  -4.0747  -4.0657  -4.0657
    -4.0643  -4.0643  -3.9817  -3.9817   0.1984   0.1984   0.2593   0.2593
     0.4842   0.4842   1.1834   1.1834   1.2334   1.2334   1.3465   1.3465
     1.6242   1.6242   1.7744   1.7744   2.0382   2.0382   2.0633   2.0633
     2.1313   2.1313   2.1322   2.1322   2.2204   2.2204   2.2286   2.2286
     2.3427   2.3427   2.4268   2.4268   2.6587   2.6587   2.7173   2.7173

     highest occupied level (ev):     3.4141

!    total energy              =   -8165.86051858 Ry
     estimated scf accuracy    <          5.7E-09 Ry

     The total energy is the sum of the following terms:
     one-electron contribution =    -324.91384928 Ry
     hartree contribution      =     251.21422881 Ry
     xc contribution           =    -792.77370773 Ry
     ewald contribution        =    -649.76807925 Ry
     one-center paw contrib.   =   -6649.61911113 Ry

     convergence has been achieved in   2 iterations

     Forces acting on atoms (cartesian axes, Ry/au):

     atom    1 type  1   force =     0.00022878   -0.00019648    0.00000000
     atom    2 type  1   force =    -0.00022878    0.00019648    0.00000000
     atom    3 type  1   force =     0.00022878    0.00019648    0.00000000
     atom    4 type  1   force =    -0.00022878   -0.00019648    0.00000000
     atom    5 type  2   force =    -0.00000000    0.00000000   -0.00000000
     atom    6 type  2   force =     0.00000000    0.00000000   -0.00000000
     atom    7 type  2   force =    -0.00000000    0.00000000    0.00000000
     atom    8 type  2   force =     0.00000000    0.00000000    0.00000000
     atom    9 type  3   force =    -0.00078198   -0.00019038    0.00000000
     atom   10 type  3   force =     0.00078198    0.00019038    0.00000000
     atom   11 type  3   force =    -0.00078198    0.00019038    0.00000000
     atom   12 type  3   force =     0.00078198   -0.00019038   -0.00000000
     atom   13 type  3   force =     0.00009302    0.00000955   -0.00002891
     atom   14 type  3   force =    -0.00009302   -0.00000955   -0.00002891
     atom   15 type  3   force =     0.00009302   -0.00000955    0.00002891
     atom   16 type  3   force =    -0.00009302    0.00000955    0.00002891
     atom   17 type  3   force =    -0.00009302   -0.00000955    0.00002891
     atom   18 type  3   force =     0.00009302    0.00000955    0.00002891
     atom   19 type  3   force =    -0.00009302    0.00000955   -0.00002891
     atom   20 type  3   force =     0.00009302   -0.00000955   -0.00002891

     Total force =     0.001741     Total SCF correction =     0.000097


     Computing stress (Cartesian axis) and pressure

          total   stress  (Ry/bohr**3)                   (kbar)     P=       -0.06
  -0.00000061   0.00000000   0.00000000           -0.09        0.00        0.00
   0.00000000   0.00000250   0.00000000            0.00        0.37        0.00
   0.00000000   0.00000000  -0.00000318            0.00        0.00       -0.47

     Energy error            =      6.2E-06 Ry
     Gradient error          =      7.8E-04 Ry/Bohr
     Cell gradient error     =      4.7E-01 kbar

     bfgs converged in   2 scf cycles and   1 bfgs steps
     (criteria: energy <  1.0E-04 Ry, force <  1.0E-03 Ry/Bohr, cell <  5.0E-01 kbar)

     End of BFGS Geometry Optimization

     Final enthalpy           =   -8165.8605185756 Ry

     File ./tmp/cspbi3_gamma_s2.bfgs deleted, as requested
Begin final coordinates
     new unit-cell volume =   6237.99776 a.u.^3 (   924.37590 Ang^3 )
     density =      5.17947 g/cm^3

CELL_PARAMETERS (angstrom)
   8.377590340   0.000000000   0.000000000
   0.000000000   8.933046593   0.000000000
   0.000000000   0.000000000  12.351789864

ATOMIC_POSITIONS (crystal)
Cs               0.4666390611        0.4169508538        0.2500000000
Cs               0.5333609389        0.5830491462        0.7500000000
Cs              -0.0333609389        0.0830491462        0.7500000000
Cs               1.0333609389        0.9169508538        0.2500000000
Pb               0.5000000000        0.0000000000       -0.0000000000
Pb               0.5000000000        0.0000000000        0.5000000000
Pb              -0.0000000000        0.5000000000        0.0000000000
Pb               0.0000000000        0.5000000000        0.5000000000
I                0.5862810738        0.0074142653        0.2500000000
I                0.4137189262        0.9925857347        0.7500000000
I                0.0862810738        0.4925857347        0.7500000000
I                0.9137189262        0.5074142653        0.2500000000
I                0.6875961767        0.3053853989        0.9596632200
I                0.3124038233        0.6946146011        0.4596632200
I                0.1875961767        0.1946146011        0.0403367800
I                0.8124038233        0.8053853989        0.5403367800
I                0.3124038233        0.6946146011        0.0403367800
I                0.6875961767        0.3053853989        0.5403367800
I                0.8124038233        0.8053853989        0.9596632200
I                0.1875961767        0.1946146011        0.4596632200
End final coordinates



     Writing config-only to output data dir ./tmp/cspbi3_gamma_s2.save/ :
     XML data file

     Final scf calculation at the relaxed structure.
     The G-vectors are recalculated for the final unit cell
     Results may differ from those at the preceding step.

     Parallelization info
     --------------------
     sticks:   dense  smooth     PW     G-vecs:    dense   smooth      PW
     Min        1700     849    229               184659    65263    9091
     Max        1702     850    230               184660    65266    9094
     Sum       10207    5097   1375              1107957   391591   54549

     Using Slab Decomposition



     bravais-lattice index     =            0
     lattice parameter (alat)  =      15.8317  a.u.
     unit-cell volume          =    6237.9978 (a.u.)^3
     number of atoms/cell      =           20
     number of atomic types    =            3
     number of electrons       =       176.00
     number of Kohn-Sham states=           88
     kinetic-energy cutoff     =      60.0000  Ry
     charge density cutoff     =     480.0000  Ry
     scf convergence threshold =      1.0E-07
     mixing beta               =       0.5000
     number of iterations used =            8  plain     mixing
     press convergence thresh. =      5.0E-01
     Exchange-correlation= SLA  PW   PSX  PSC
                           (   1   4  10   8   0   0   0)

     celldm(1)=  15.831664  celldm(2)=   0.000000  celldm(3)=   0.000000
     celldm(4)=   0.000000  celldm(5)=   0.000000  celldm(6)=   0.000000

     crystal axes: (cart. coord. in units of alat)
               a(1) = (   0.999980   0.000000   0.000000 )  
               a(2) = (   0.000000   1.066282   0.000000 )  
               a(3) = (   0.000000   0.000000   1.474355 )  

     reciprocal axes: (cart. coord. in units 2 pi/alat)
               b(1) = (  1.000020  0.000000  0.000000 )  
               b(2) = (  0.000000  0.937839  0.000000 )  
               b(3) = (  0.000000  0.000000  0.678262 )  


     PseudoPot. # 1 for Cs read from file:
     /home/duydao/pseudo_pbesol/cs_pbesol_v1.uspp.F.UPF
     MD5 check sum: ae4559e5c840913b791237f814e2d884
     Pseudo is Ultrasoft + core correction, Zval =  9.0
     Generated by new atomic code, or converted to UPF format
     Using radial grid of  905 points,  6 beta functions with: 
                l(1) =   0
                l(2) =   0
                l(3) =   1
                l(4) =   1
                l(5) =   2
                l(6) =   2
     Q(r) pseudized with  6 coefficients,  rinner =    1.500   1.500   1.500
                                                       1.500   1.500

     PseudoPot. # 2 for Pb read from file:
     /home/duydao/pseudo_pbesol/Pb.pbesol-dn-kjpaw_psl.0.2.2.UPF
     MD5 check sum: df0e0ac60519e244e20a4bf230ae894d
     Pseudo is Projector augmented-wave + core cor, Zval = 14.0
     Generated using "atomic" code by A. Dal Corso  v.6.0 svn rev. 13079
     Shape of augmentation charge: PSQ
     Using radial grid of 1281 points,  6 beta functions with: 
                l(1) =   0
                l(2) =   0
                l(3) =   1
                l(4) =   1
                l(5) =   2
                l(6) =   2
     Q(r) pseudized with 0 coefficients 


     PseudoPot. # 3 for I  read from file:
     /home/duydao/pseudo_pbesol/I.pbesol-n-kjpaw_psl.0.2.UPF
     MD5 check sum: cecf1a22a184a0b1ae701638a037a48d
     Pseudo is Projector augmented-wave + core cor, Zval =  7.0
     Generated using "atomic" code by A. Dal Corso  v.6.0 svn rev. 13079
     Shape of augmentation charge: PSQ
     Using radial grid of 1247 points,  4 beta functions with: 
                l(1) =   0
                l(2) =   0
                l(3) =   1
                l(4) =   1
     Q(r) pseudized with 0 coefficients 


     atomic species   valence    mass     pseudopotential
     Cs                9.00   132.90500     Cs( 1.00)
     Pb               14.00   207.20000     Pb( 1.00)
     I                 7.00   126.90400     I ( 1.00)

      8 Sym. Ops., with inversion, found ( 6 have fractional translation)



   Cartesian axes

     site n.     atom                  positions (alat units)
         1        Cs     tau(   1) = (   0.4666298   0.4445870   0.3685889  )
         2        Cs     tau(   2) = (   0.5333504   0.6216946   1.1057666  )
         3        Cs     tau(   3) = (  -0.0333603   0.0885538   1.1057666  )
         4        Cs     tau(   4) = (   1.0333405   0.9777278   0.3685889  )
         5        Pb     tau(   5) = (   0.4999901   0.0000000  -0.0000000  )
         6        Pb     tau(   6) = (   0.4999901   0.0000000   0.7371777  )
         7        Pb     tau(   7) = (  -0.0000000   0.5331408   0.0000000  )
         8        Pb     tau(   8) = (   0.0000000   0.5331408   0.7371777  )
         9        I      tau(   9) = (   0.5862695   0.0079057   0.3685889  )
        10        I      tau(  10) = (   0.4137108   1.0583759   1.1057666  )
        11        I      tau(  11) = (   0.0862794   0.5252351   1.1057666  )
        12        I      tau(  12) = (   0.9137009   0.5410465   0.3685889  )
        13        I      tau(  13) = (   0.6875826   0.3256268   1.4148847  )
        14        I      tau(  14) = (   0.3123977   0.7406547   0.6777070  )
        15        I      tau(  15) = (   0.1875925   0.2075140   0.0594708  )
        16        I      tau(  16) = (   0.8123878   0.8587676   0.7966485  )
        17        I      tau(  17) = (   0.3123977   0.7406547   0.0594708  )
        18        I      tau(  18) = (   0.6875826   0.3256268   0.7966485  )
        19        I      tau(  19) = (   0.8123878   0.8587676   1.4148847  )
        20        I      tau(  20) = (   0.1875925   0.2075140   0.6777070  )

     number of k points=    18
                       cart. coord. in units 2pi/alat
        k(    1) = (   0.0000000   0.0000000   0.0000000), wk =   0.0416667
        k(    2) = (   0.0000000   0.0000000   0.2260875), wk =   0.0833333
        k(    3) = (   0.0000000   0.2344596   0.0000000), wk =   0.0833333
        k(    4) = (   0.0000000   0.2344596   0.2260875), wk =   0.1666667
        k(    5) = (   0.0000000  -0.4689193   0.0000000), wk =   0.0416667
        k(    6) = (   0.0000000  -0.4689193   0.2260875), wk =   0.0833333
        k(    7) = (   0.2500049   0.0000000   0.0000000), wk =   0.0833333
        k(    8) = (   0.2500049   0.0000000   0.2260875), wk =   0.1666667
        k(    9) = (   0.2500049   0.2344596   0.0000000), wk =   0.1666667
        k(   10) = (   0.2500049   0.2344596   0.2260875), wk =   0.3333333
        k(   11) = (   0.2500049  -0.4689193   0.0000000), wk =   0.0833333
        k(   12) = (   0.2500049  -0.4689193   0.2260875), wk =   0.1666667
        k(   13) = (  -0.5000099   0.0000000   0.0000000), wk =   0.0416667
        k(   14) = (  -0.5000099   0.0000000   0.2260875), wk =   0.0833333
        k(   15) = (  -0.5000099   0.2344596   0.0000000), wk =   0.0833333
        k(   16) = (  -0.5000099   0.2344596   0.2260875), wk =   0.1666667
        k(   17) = (  -0.5000099  -0.4689193   0.0000000), wk =   0.0416667
        k(   18) = (  -0.5000099  -0.4689193   0.2260875), wk =   0.0833333

     Dense  grid:  1107957 G-vectors     FFT dimensions: ( 120, 120, 180)

     Smooth grid:   391591 G-vectors     FFT dimensions: (  80,  90, 120)

     Estimated max dynamical RAM per process >     990.96 MB

     Estimated total dynamical RAM >       5.81 GB

     Initial potential from superposition of free atoms

     starting charge     175.8397, renormalised to     176.0000
     Starting wfcs are  136 randomized atomic wfcs
     Checking if some PAW data can be deallocated... 

     total cpu time spent up to now is     4715.2 secs

     Self-consistent Calculation

     iteration #  1     ecut=    60.00 Ry     beta= 0.50
     Davidson diagonalization with overlap
     ethr =  1.00E-06,  avg # of iterations = 15.5

     total cpu time spent up to now is     5857.4 secs

     total energy              =   -8165.77589086 Ry
     estimated scf accuracy    <       0.34110243 Ry

     iteration #  2     ecut=    60.00 Ry     beta= 0.50
     Davidson diagonalization with overlap
     ethr =  1.94E-04,  avg # of iterations =  2.2

     total cpu time spent up to now is     6082.6 secs

     total energy              =   -8165.85499617 Ry
     estimated scf accuracy    <       0.01284978 Ry

     iteration #  3     ecut=    60.00 Ry     beta= 0.50
     Davidson diagonalization with overlap
     ethr =  7.30E-06,  avg # of iterations =  4.6

     total cpu time spent up to now is     6387.9 secs

     total energy              =   -8165.85961916 Ry
     estimated scf accuracy    <       0.01087506 Ry

     iteration #  4     ecut=    60.00 Ry     beta= 0.50
     Davidson diagonalization with overlap
     ethr =  6.18E-06,  avg # of iterations =  1.0

     total cpu time spent up to now is     6553.1 secs

     total energy              =   -8165.85978089 Ry
     estimated scf accuracy    <       0.00432758 Ry

     iteration #  5     ecut=    60.00 Ry     beta= 0.50
     Davidson diagonalization with overlap
     ethr =  2.46E-06,  avg # of iterations =  4.0

     total cpu time spent up to now is     6818.3 secs

     total energy              =   -8165.86038106 Ry
     estimated scf accuracy    <       0.00156027 Ry

     iteration #  6     ecut=    60.00 Ry     beta= 0.50
     Davidson diagonalization with overlap
     ethr =  8.87E-07,  avg # of iterations =  2.0

     total cpu time spent up to now is     7013.6 secs

     total energy              =   -8165.86039346 Ry
     estimated scf accuracy    <       0.00019868 Ry

     iteration #  7     ecut=    60.00 Ry     beta= 0.50
     Davidson diagonalization with overlap
     ethr =  1.13E-07,  avg # of iterations =  5.6

     total cpu time spent up to now is     7364.0 secs

     total energy              =   -8165.86049512 Ry
     estimated scf accuracy    <       0.00053405 Ry

     iteration #  8     ecut=    60.00 Ry     beta= 0.50
     Davidson diagonalization with overlap
     ethr =  1.13E-07,  avg # of iterations =  2.9

     total cpu time spent up to now is     7576.5 secs

     total energy              =   -8165.86048740 Ry
     estimated scf accuracy    <       0.00009875 Ry

     iteration #  9     ecut=    60.00 Ry     beta= 0.50
     Davidson diagonalization with overlap
     ethr =  5.61E-08,  avg # of iterations =  4.0

     total cpu time spent up to now is     7830.9 secs

     total energy              =   -8165.86051586 Ry
     estimated scf accuracy    <       0.00003495 Ry

     iteration # 10     ecut=    60.00 Ry     beta= 0.50
     Davidson diagonalization with overlap
     ethr =  1.99E-08,  avg # of iterations =  2.0

     total cpu time spent up to now is     8019.1 secs

     total energy              =   -8165.86051680 Ry
     estimated scf accuracy    <       0.00000693 Ry

     iteration # 11     ecut=    60.00 Ry     beta= 0.50
     Davidson diagonalization with overlap
     ethr =  3.93E-09,  avg # of iterations =  4.2

     total cpu time spent up to now is     8243.4 secs

     total energy              =   -8165.86051757 Ry
     estimated scf accuracy    <       0.00000079 Ry

     iteration # 12     ecut=    60.00 Ry     beta= 0.50
     Davidson diagonalization with overlap
     ethr =  4.46E-10,  avg # of iterations =  5.2

     total cpu time spent up to now is     8595.6 secs

     total energy              =   -8165.86051797 Ry
     estimated scf accuracy    <       0.00000108 Ry

     iteration # 13     ecut=    60.00 Ry     beta= 0.50
     Davidson diagonalization with overlap
     ethr =  4.46E-10,  avg # of iterations =  3.1

     total cpu time spent up to now is     8815.9 secs

     End of self-consistent calculation

          k = 0.0000 0.0000 0.0000 ( 49019 PWs)   bands (ev):

   -17.2591 -17.2584 -17.2568 -17.2563 -13.0939 -13.0916 -13.0912 -13.0866
   -13.0800 -13.0727 -13.0705 -13.0704 -13.0382 -13.0380 -13.0376 -13.0374
   -13.0357 -13.0356 -13.0351 -13.0350 -13.0295 -13.0291 -13.0288 -13.0285
    -8.7806  -8.5905  -8.3269  -8.2883  -8.2815  -8.2633  -8.2617  -8.2430
    -8.2287  -8.0557  -8.0487  -8.0414  -4.9769  -4.4689  -4.1308  -4.1266
    -4.1229  -4.1207  -4.1176  -4.1127  -4.1081  -4.1034  -4.0939  -4.0721
    -4.0598  -4.0523  -3.9138  -3.4699  -0.0126   0.0294   0.0505   0.1806
     0.1888   0.2763   1.1029   1.3953   1.4060   1.4290   1.4430   1.4933
     1.7270   1.9083   1.9266   1.9278   2.0121   2.0218   2.0258   2.0577
     2.0654   2.0743   2.0993   2.1005   2.1571   2.3538   2.3748   2.4150
     2.4390   2.4415   2.4624   2.4911   2.6814   2.6943   2.9635   3.4141

          k = 0.0000 0.0000 0.2261 ( 48974 PWs)   bands (ev):

   -17.2589 -17.2586 -17.2567 -17.2565 -13.0914 -13.0912 -13.0904 -13.0835
   -13.0833 -13.0762 -13.0705 -13.0705 -13.0380 -13.0378 -13.0377 -13.0375
   -13.0357 -13.0356 -13.0351 -13.0350 -13.0294 -13.0292 -13.0287 -13.0286
    -8.7463  -8.6575  -8.3116  -8.2836  -8.2777  -8.2698  -8.2433  -8.2332
    -8.1999  -8.0926  -8.0516  -8.0445  -4.8583  -4.6037  -4.1309  -4.1300
    -4.1286  -4.1265  -4.1141  -4.1055  -4.0874  -4.0872  -4.0744  -4.0696
    -4.0690  -4.0618  -3.8549  -3.6243   0.0541   0.0833   0.0950   0.1539
     0.4198   0.6285   1.1022   1.1734   1.2857   1.4597   1.4698   1.5145
     1.5447   1.6653   1.8418   1.9255   1.9469   1.9750   2.0532   2.0631
     2.0833   2.1202   2.1582   2.1635   2.2542   2.2653   2.3186   2.3663
     2.4019   2.4089   2.4425   2.4607   2.6056   2.6694   2.9916   3.1400

          k = 0.0000 0.2345 0.0000 ( 49004 PWs)   bands (ev):

   -17.2588 -17.2581 -17.2571 -17.2566 -13.0929 -13.0896 -13.0882 -13.0866
   -13.0791 -13.0737 -13.0735 -13.0733 -13.0381 -13.0380 -13.0376 -13.0374
   -13.0356 -13.0355 -13.0352 -13.0351 -13.0294 -13.0290 -13.0289 -13.0286
    -8.7420  -8.5490  -8.4764  -8.3192  -8.2775  -8.2653  -8.2188  -8.2017
    -8.1704  -8.0848  -8.0690  -8.0565  -4.8476  -4.3683  -4.2306  -4.1350
    -4.1276  -4.1205  -4.1166  -4.1063  -4.0873  -4.0858  -4.0801  -4.0785
    -4.0708  -4.0340  -3.9958  -3.6374   0.0441   0.2052   0.2116   0.3093
     0.3754   0.4019   1.1708   1.2800   1.2807   1.3536   1.4312   1.4870
     1.4990   1.6021   1.7466   1.8660   1.9740   1.9752   2.0180   2.0416
     2.1133   2.1167   2.1648   2.1689   2.1838   2.2840   2.3293   2.3337
     2.3885   2.4055   2.4515   2.5095   2.6955   2.7217   2.7416   3.1286

          k = 0.0000 0.2345 0.2261 ( 48988 PWs)   bands (ev):

   -17.2586 -17.2583 -17.2570 -17.2568 -13.0894 -13.0886 -13.0883 -13.0840
   -13.0825 -13.0772 -13.0735 -13.0734 -13.0380 -13.0379 -13.0377 -13.0376
   -13.0356 -13.0355 -13.0352 -13.0351 -13.0293 -13.0291 -13.0288 -13.0287
    -8.7077  -8.6183  -8.4502  -8.3824  -8.2182  -8.2175  -8.2095  -8.1951
    -8.1815  -8.0971  -8.0808  -8.0727  -4.7348  -4.4928  -4.1590  -4.1302
    -4.1289  -4.1181  -4.1144  -4.1095  -4.0961  -4.0863  -4.0845  -4.0705
    -4.0664  -4.0535  -3.9702  -3.7796   0.2467   0.2707   0.3209   0.3466
     0.4914   0.5749   1.1285   1.2145   1.2579   1.3113   1.3258   1.4092
     1.5178   1.6048   1.6245   1.8233   1.8240   1.9361   1.9370   2.0242
     2.0368   2.1069   2.1160   2.1388   2.2655   2.3135   2.3539   2.3728
     2.3986   2.4046   2.4318   2.4793   2.6522   2.6917   2.7260   2.8796

          k = 0.0000-0.4689 0.0000 ( 48914 PWs)   bands (ev):

   -17.2579 -17.2579 -17.2574 -17.2574 -13.0907 -13.0907 -13.0813 -13.0813
   -13.0807 -13.0807 -13.0759 -13.0759 -13.0381 -13.0381 -13.0375 -13.0375
   -13.0354 -13.0354 -13.0353 -13.0353 -13.0291 -13.0291 -13.0288 -13.0288
    -8.6332  -8.6332  -8.4411  -8.4411  -8.2717  -8.2717  -8.1535  -8.1535
    -8.1357  -8.1357  -8.0902  -8.0902  -4.5340  -4.5340  -4.1676  -4.1676
    -4.1225  -4.1225  -4.0995  -4.0995  -4.0965  -4.0965  -4.0811  -4.0811
    -4.0618  -4.0618  -3.9310  -3.9310   0.1212   0.1212   0.6444   0.6444
     0.8303   0.8303   0.9118   0.9118   0.9934   0.9934   1.3211   1.3211
     1.6194   1.6194   1.7378   1.7378   1.8469   1.8469   2.0206   2.0206
     2.0912   2.0912   2.1252   2.1252   2.2219   2.2219   2.3393   2.3393
     2.3949   2.3949   2.4525   2.4525   2.6392   2.6392   2.8582   2.8582

          k = 0.0000-0.4689 0.2261 ( 48958 PWs)   bands (ev):

   -17.2578 -17.2578 -17.2575 -17.2575 -13.0872 -13.0872 -13.0819 -13.0819
   -13.0806 -13.0806 -13.0788 -13.0788 -13.0379 -13.0379 -13.0376 -13.0376
   -13.0354 -13.0354 -13.0353 -13.0353 -13.0291 -13.0291 -13.0289 -13.0289
    -8.6003  -8.6003  -8.5137  -8.5137  -8.2024  -8.2024  -8.1503  -8.1503
    -8.1396  -8.1396  -8.1187  -8.1187  -4.4307  -4.4307  -4.2268  -4.2268
    -4.1254  -4.1254  -4.1102  -4.1102  -4.0952  -4.0952  -4.0783  -4.0783
    -4.0584  -4.0584  -4.0039  -4.0039   0.4569   0.4569   0.6864   0.6864
     0.7658   0.7658   0.9258   0.9258   0.9675   0.9675   1.2239   1.2239
     1.6714   1.6714   1.7212   1.7212   1.7958   1.7958   1.8930   1.8930
     1.9415   1.9415   1.9802   1.9802   2.3219   2.3219   2.3875   2.3875
     2.3987   2.3987   2.4742   2.4742   2.6490   2.6490   2.7058   2.7058

          k = 0.2500 0.0000 0.0000 ( 48921 PWs)   bands (ev):

   -17.2588 -17.2583 -17.2569 -17.2566 -13.0929 -13.0896 -13.0882 -13.0866
   -13.0791 -13.0737 -13.0735 -13.0733 -13.0381 -13.0380 -13.0376 -13.0374
   -13.0356 -13.0355 -13.0352 -13.0351 -13.0294 -13.0290 -13.0289 -13.0286
    -8.7386  -8.5447  -8.4596  -8.2906  -8.2778  -8.2682  -8.2538  -8.2316
    -8.1567  -8.0892  -8.0744  -8.0563  -4.8455  -4.3604  -4.2064  -4.1268
    -4.1243  -4.1184  -4.1143  -4.1077  -4.1073  -4.0880  -4.0831  -4.0723
    -4.0641  -4.0411  -3.9918  -3.6407   0.0428   0.1850   0.2121   0.3201
     0.3341   0.4689   1.1406   1.1826   1.3122   1.3836   1.4975   1.5014
     1.5066   1.6116   1.8269   1.8510   1.9809   1.9892   2.0176   2.0351
     2.1166   2.1275   2.1751   2.2103   2.2173   2.2259   2.2394   2.3626
     2.3771   2.4070   2.4526   2.5050   2.6214   2.6820   2.7046   3.0488

          k = 0.2500 0.0000 0.2261 ( 48983 PWs)   bands (ev):

   -17.2587 -17.2584 -17.2569 -17.2567 -13.0894 -13.0887 -13.0883 -13.0840
   -13.0825 -13.0772 -13.0735 -13.0734 -13.0380 -13.0379 -13.0377 -13.0376
   -13.0356 -13.0355 -13.0352 -13.0351 -13.0293 -13.0291 -13.0288 -13.0287
    -8.7043  -8.6146  -8.4332  -8.3645  -8.2502  -8.2391  -8.2079  -8.1999
    -8.1686  -8.0973  -8.0848  -8.0774  -4.7317  -4.4869  -4.1416  -4.1343
    -4.1303  -4.1210  -4.1012  -4.0993  -4.0933  -4.0875  -4.0800  -4.0674
    -4.0644  -4.0617  -3.9767  -3.7872   0.2156   0.2610   0.3179   0.4139
     0.4751   0.5689   1.1046   1.1527   1.2171   1.3423   1.3877   1.3926
     1.5803   1.6208   1.6417   1.7970   1.9235   1.9417   2.0358   2.0364
     2.0630   2.0862   2.1521   2.1906   2.2495   2.2508   2.3100   2.3602
     2.3834   2.4005   2.4202   2.4734   2.5762   2.6007   2.6905   2.7734

          k = 0.2500 0.2345 0.0000 ( 48919 PWs)   bands (ev):

   -17.2586 -17.2580 -17.2572 -17.2568 -13.0934 -13.0898 -13.0871 -13.0845
   -13.0790 -13.0762 -13.0751 -13.0719 -13.0381 -13.0380 -13.0375 -13.0374
   -13.0356 -13.0354 -13.0353 -13.0351 -13.0293 -13.0290 -13.0290 -13.0287
    -8.7040  -8.5045  -8.5020  -8.2858  -8.2821  -8.2773  -8.2625  -8.2585
    -8.1461  -8.1071  -8.0964  -8.0358  -4.7437  -4.2957  -4.2883  -4.1240
    -4.1167  -4.1153  -4.1148  -4.1042  -4.0954  -4.0821  -4.0782  -4.0763
    -4.0730  -4.0240  -4.0129  -3.7303   0.0605   0.0997   0.1767   0.2454
     0.7057   0.8199   0.8554   1.0300   1.2589   1.2695   1.2945   1.5467
     1.5601   1.7073   1.7948   1.9152   1.9580   1.9730   2.0471   2.0654
     2.0687   2.1114   2.1322   2.1416   2.2188   2.2758   2.3210   2.3224
     2.3344   2.3602   2.4430   2.4723   2.6031   2.7107   2.7403   3.0496

          k = 0.2500 0.2345 0.2261 ( 48969 PWs)   bands (ev):

   -17.2584 -17.2581 -17.2571 -17.2569 -13.0906 -13.0877 -13.0867 -13.0834
   -13.0813 -13.0788 -13.0748 -13.0736 -13.0380 -13.0379 -13.0377 -13.0376
   -13.0355 -13.0355 -13.0352 -13.0352 -13.0292 -13.0291 -13.0289 -13.0287
    -8.6692  -8.5779  -8.4704  -8.3856  -8.2733  -8.2686  -8.2067  -8.1753
    -8.1513  -8.1162  -8.1019  -8.0653  -4.6351  -4.4029  -4.2088  -4.1250
    -4.1234  -4.1199  -4.1086  -4.0977  -4.0928  -4.0862  -4.0798  -4.0745
    -4.0666  -4.0459  -4.0137  -3.8655   0.1301   0.1920   0.4154   0.5248
     0.7559   0.7741   0.8959   0.9570   1.1326   1.2455   1.3089   1.3623
     1.5712   1.6810   1.7044   1.8084   1.8648   1.9098   1.9317   1.9657
     2.0730   2.1020   2.1803   2.2111   2.2567   2.3019   2.3183   2.3460
     2.3682   2.3802   2.4324   2.4516   2.5838   2.6123   2.6944   2.7976

          k = 0.2500-0.4689 0.0000 ( 48942 PWs)   bands (ev):

   -17.2579 -17.2579 -17.2574 -17.2574 -13.0921 -13.0921 -13.0836 -13.0836
   -13.0793 -13.0793 -13.0736 -13.0736 -13.0381 -13.0381 -13.0375 -13.0375
   -13.0354 -13.0354 -13.0353 -13.0353 -13.0291 -13.0291 -13.0288 -13.0288
    -8.6107  -8.6107  -8.4006  -8.4006  -8.2765  -8.2765  -8.2245  -8.2245
    -8.1845  -8.1845  -8.0443  -8.0443  -4.5102  -4.5102  -4.1507  -4.1507
    -4.1202  -4.1202  -4.1003  -4.1003  -4.0924  -4.0924  -4.0793  -4.0793
    -4.0665  -4.0665  -3.9096  -3.9096   0.1136   0.1136   0.3388   0.3388
     0.4838   0.4838   1.1629   1.1629   1.2411   1.2411   1.3580   1.3580
     1.6390   1.6390   1.8416   1.8416   1.9496   1.9496   2.0375   2.0375
     2.1161   2.1161   2.2084   2.2084   2.2132   2.2132   2.2675   2.2675
     2.3371   2.3371   2.3871   2.3871   2.6450   2.6450   2.8632   2.8632

          k = 0.2500-0.4689 0.2261 ( 48988 PWs)   bands (ev):

   -17.2578 -17.2578 -17.2575 -17.2575 -13.0892 -13.0892 -13.0848 -13.0848
   -13.0786 -13.0786 -13.0759 -13.0759 -13.0379 -13.0379 -13.0376 -13.0376
   -13.0354 -13.0354 -13.0353 -13.0353 -13.0291 -13.0291 -13.0289 -13.0289
    -8.5759  -8.5759  -8.4832  -8.4832  -8.2374  -8.2374  -8.2258  -8.2258
    -8.1455  -8.1455  -8.0729  -8.0729  -4.4103  -4.4103  -4.2149  -4.2149
    -4.1187  -4.1187  -4.1088  -4.1088  -4.0855  -4.0855  -4.0768  -4.0768
    -4.0562  -4.0562  -3.9935  -3.9935   0.3521   0.3521   0.4229   0.4229
     0.5094   0.5094   1.1587   1.1587   1.2074   1.2074   1.2334   1.2334
     1.5676   1.5676   1.7606   1.7606   1.8946   1.8946   1.9908   1.9908
     2.0827   2.0827   2.1166   2.1166   2.2976   2.2976   2.3346   2.3346
     2.3659   2.3659   2.4152   2.4152   2.6227   2.6227   2.6595   2.6595

          k =-0.5000 0.0000 0.0000 ( 48876 PWs)   bands (ev):

   -17.2583 -17.2583 -17.2570 -17.2570 -13.0906 -13.0906 -13.0813 -13.0813
   -13.0807 -13.0807 -13.0758 -13.0758 -13.0380 -13.0380 -13.0375 -13.0375
   -13.0354 -13.0354 -13.0353 -13.0353 -13.0291 -13.0291 -13.0288 -13.0288
    -8.6219  -8.6219  -8.4254  -8.4254  -8.2745  -8.2745  -8.1761  -8.1761
    -8.1537  -8.1537  -8.0846  -8.0846  -4.5243  -4.5243  -4.1646  -4.1646
    -4.1197  -4.1197  -4.0991  -4.0991  -4.0747  -4.0747  -4.0678  -4.0678
    -4.0523  -4.0523  -3.9608  -3.9608   0.1238   0.1238   0.5960   0.5960
     0.8064   0.8064   0.9247   0.9247   1.1222   1.1222   1.2675   1.2675
     1.5988   1.5988   1.8154   1.8154   1.9142   1.9142   2.0261   2.0261
     2.0562   2.0562   2.2117   2.2117   2.2213   2.2213   2.2816   2.2816
     2.3721   2.3721   2.4487   2.4487   2.5027   2.5027   2.7556   2.7556

          k =-0.5000 0.0000 0.2261 ( 48902 PWs)   bands (ev):

   -17.2583 -17.2583 -17.2570 -17.2570 -13.0872 -13.0872 -13.0819 -13.0819
   -13.0806 -13.0806 -13.0788 -13.0788 -13.0379 -13.0379 -13.0376 -13.0376
   -13.0354 -13.0354 -13.0353 -13.0353 -13.0291 -13.0291 -13.0289 -13.0289
    -8.5890  -8.5890  -8.5013  -8.5013  -8.2027  -8.2027  -8.1769  -8.1769
    -8.1525  -8.1525  -8.1134  -8.1134  -4.4184  -4.4184  -4.2100  -4.2100
    -4.1224  -4.1224  -4.1105  -4.1105  -4.0819  -4.0819  -4.0693  -4.0693
    -4.0497  -4.0497  -4.0361  -4.0361   0.4581   0.4581   0.6398   0.6398
     0.7477   0.7477   0.9430   0.9430   1.0352   1.0352   1.1700   1.1700
     1.6816   1.6816   1.8251   1.8251   1.8476   1.8476   1.9436   1.9436
     1.9575   1.9575   2.0850   2.0850   2.3067   2.3067   2.3305   2.3305
     2.3782   2.3782   2.4300   2.4300   2.5045   2.5045   2.5418   2.5418

          k =-0.5000 0.2345 0.0000 ( 48934 PWs)   bands (ev):

   -17.2581 -17.2581 -17.2571 -17.2571 -13.0921 -13.0921 -13.0836 -13.0836
   -13.0793 -13.0793 -13.0736 -13.0736 -13.0381 -13.0381 -13.0375 -13.0375
   -13.0354 -13.0354 -13.0353 -13.0353 -13.0291 -13.0291 -13.0288 -13.0288
    -8.6042  -8.6042  -8.3894  -8.3894  -8.2786  -8.2786  -8.2324  -8.2324
    -8.1969  -8.1969  -8.0450  -8.0450  -4.5050  -4.5050  -4.1526  -4.1526
    -4.1074  -4.1074  -4.1071  -4.1071  -4.0862  -4.0862  -4.0751  -4.0751
    -4.0591  -4.0591  -3.9215  -3.9215   0.1135   0.1135   0.3281   0.3281
     0.4938   0.4938   1.1200   1.1200   1.2504   1.2504   1.4278   1.4278
     1.6513   1.6513   1.8616   1.8616   1.9806   1.9806   2.0545   2.0545
     2.0812   2.0812   2.1888   2.1888   2.2024   2.2024   2.2589   2.2589
     2.3081   2.3081   2.3941   2.3941   2.6040   2.6040   2.8247   2.8247

          k =-0.5000 0.2345 0.2261 ( 48884 PWs)   bands (ev):

   -17.2581 -17.2581 -17.2572 -17.2572 -13.0892 -13.0892 -13.0848 -13.0848
   -13.0786 -13.0786 -13.0759 -13.0759 -13.0379 -13.0379 -13.0376 -13.0376
   -13.0354 -13.0354 -13.0353 -13.0353 -13.0291 -13.0291 -13.0289 -13.0289
    -8.5692  -8.5692  -8.4755  -8.4755  -8.2459  -8.2459  -8.2293  -8.2293
    -8.1518  -8.1518  -8.0744  -8.0744  -4.4040  -4.4040  -4.2080  -4.2080
    -4.1108  -4.1108  -4.1041  -4.1041  -4.0921  -4.0921  -4.0739  -4.0739
    -4.0498  -4.0498  -4.0068  -4.0068   0.3524   0.3524   0.4148   0.4148
     0.5090   0.5090   1.0972   1.0972   1.2359   1.2359   1.2733   1.2733
     1.5976   1.5976   1.7879   1.7879   1.9009   1.9009   2.0538   2.0538
     2.1076   2.1076   2.1550   2.1550   2.2576   2.2576   2.2827   2.2827
     2.3226   2.3226   2.4088   2.4088   2.5698   2.5698   2.5979   2.5979

          k =-0.5000-0.4689 0.0000 ( 48992 PWs)   bands (ev):

   -17.2579 -17.2579 -17.2574 -17.2574 -13.0933 -13.0933 -13.0851 -13.0851
   -13.0781 -13.0781 -13.0721 -13.0721 -13.0380 -13.0380 -13.0375 -13.0375
   -13.0354 -13.0354 -13.0353 -13.0353 -13.0291 -13.0291 -13.0288 -13.0288
    -8.5832  -8.5832  -8.3092  -8.3092  -8.2975  -8.2975  -8.2843  -8.2843
    -8.2611  -8.2611  -8.0218  -8.0218  -4.4861  -4.4861  -4.1348  -4.1348
    -4.1143  -4.1143  -4.1024  -4.1024  -4.0861  -4.0861  -4.0779  -4.0779
    -4.0737  -4.0737  -3.8889  -3.8889   0.1007   0.1007   0.1665   0.1665
     0.3217   0.3217   1.1670   1.1670   1.2937   1.2937   1.6241   1.6241
     1.6586   1.6586   1.9170   1.9170   1.9672   1.9672   2.0205   2.0205
     2.1180   2.1180   2.1717   2.1717   2.2097   2.2097   2.2280   2.2280
     2.2693   2.2693   2.4277   2.4277   2.6875   2.6875   2.9351   2.9351

          k =-0.5000-0.4689 0.2261 ( 48964 PWs)   bands (ev):

   -17.2578 -17.2578 -17.2575 -17.2575 -13.0906 -13.0906 -13.0865 -13.0865
   -13.0772 -13.0772 -13.0743 -13.0743 -13.0379 -13.0379 -13.0376 -13.0376
   -13.0354 -13.0354 -13.0353 -13.0353 -13.0291 -13.0291 -13.0289 -13.0289
    -8.5450  -8.5450  -8.4399  -8.4399  -8.2838  -8.2838  -8.2832  -8.2832
    -8.1496  -8.1496  -8.0546  -8.0546  -4.3898  -4.3898  -4.2041  -4.2041
    -4.1110  -4.1110  -4.1089  -4.1089  -4.0747  -4.0747  -4.0657  -4.0657
    -4.0643  -4.0643  -3.9817  -3.9817   0.1984   0.1984   0.2593   0.2593
     0.4842   0.4842   1.1834   1.1834   1.2334   1.2334   1.3465   1.3465
     1.6242   1.6242   1.7743   1.7743   2.0382   2.0382   2.0632   2.0632
     2.1312   2.1312   2.1321   2.1321   2.2204   2.2204   2.2286   2.2286
     2.3427   2.3427   2.4268   2.4268   2.6587   2.6587   2.7172   2.7172

     highest occupied level (ev):     3.4141

!    total energy              =   -8165.86051809 Ry
     estimated scf accuracy    <       0.00000002 Ry

     The total energy is the sum of the following terms:
     one-electron contribution =    -324.91374013 Ry
     hartree contribution      =     251.21455821 Ry
     xc contribution           =    -792.77401391 Ry
     ewald contribution        =    -649.76807925 Ry
     one-center paw contrib.   =   -6649.61924300 Ry

     convergence has been achieved in  13 iterations

     Forces acting on atoms (cartesian axes, Ry/au):

     atom    1 type  1   force =     0.00023782   -0.00021170    0.00000000
     atom    2 type  1   force =    -0.00023782    0.00021170    0.00000000
     atom    3 type  1   force =     0.00023782    0.00021170    0.00000000
     atom    4 type  1   force =    -0.00023782   -0.00021170    0.00000000
     atom    5 type  2   force =    -0.00000000    0.00000000   -0.00000000
     atom    6 type  2   force =     0.00000000    0.00000000   -0.00000000
     atom    7 type  2   force =    -0.00000000    0.00000000    0.00000000
     atom    8 type  2   force =     0.00000000    0.00000000    0.00000000
     atom    9 type  3   force =    -0.00078993   -0.00019120   -0.00000000
     atom   10 type  3   force =     0.00078993    0.00019120    0.00000000
     atom   11 type  3   force =    -0.00078993    0.00019120    0.00000000
     atom   12 type  3   force =     0.00078993   -0.00019120    0.00000000
     atom   13 type  3   force =     0.00009315    0.00000989   -0.00003097
     atom   14 type  3   force =    -0.00009315   -0.00000989   -0.00003097
     atom   15 type  3   force =     0.00009315   -0.00000989    0.00003097
     atom   16 type  3   force =    -0.00009315    0.00000989    0.00003097
     atom   17 type  3   force =    -0.00009315   -0.00000989    0.00003097
     atom   18 type  3   force =     0.00009315    0.00000989    0.00003097
     atom   19 type  3   force =    -0.00009315    0.00000989   -0.00003097
     atom   20 type  3   force =     0.00009315   -0.00000989   -0.00003097

     Total force =     0.001768     Total SCF correction =     0.000054


     Computing stress (Cartesian axis) and pressure

          total   stress  (Ry/bohr**3)                   (kbar)     P=       -0.04
  -0.00000048   0.00000000   0.00000000           -0.07        0.00        0.00
   0.00000000   0.00000261   0.00000000            0.00        0.38        0.00
   0.00000000   0.00000000  -0.00000304            0.00        0.00       -0.45


     Writing all to output data dir ./tmp/cspbi3_gamma_s2.save/ :
     XML data file, charge density, pseudopotentials, collected wavefunctions

     init_run     :    213.49s CPU    218.15s WALL (       2 calls)
     electrons    :   7981.23s CPU   8108.80s WALL (       3 calls)
     update_pot   :      1.65s CPU      1.70s WALL (       1 calls)
     forces       :    163.21s CPU    166.95s WALL (       3 calls)
     stress       :    526.22s CPU    534.07s WALL (       3 calls)

     Called by init_run:
     wfcinit      :    201.05s CPU    203.16s WALL (       2 calls)
     potinit      :      3.52s CPU      3.73s WALL (       2 calls)
     hinit0       :      1.26s CPU      1.38s WALL (       2 calls)

     Called by electrons:
     c_bands      :   7193.71s CPU   7255.15s WALL (      29 calls)
     sum_band     :    664.03s CPU    704.57s WALL (      29 calls)
     v_of_rho     :     12.59s CPU     13.94s WALL (      30 calls)
     newd         :     94.53s CPU    121.96s WALL (      30 calls)
     PAW_pot      :     26.94s CPU     26.95s WALL (      31 calls)
     mix_rho      :      2.36s CPU      2.43s WALL (      29 calls)

     Called by c_bands:
     init_us_2    :     32.68s CPU     32.85s WALL (    1206 calls)
     cegterg      :   7136.26s CPU   7197.19s WALL (     522 calls)

     Called by *egterg:
     cdiaghg      :     62.70s CPU     62.76s WALL (    2500 calls)
     h_psi        :   3130.91s CPU   3177.64s WALL (    2590 calls)
     s_psi        :   1052.97s CPU   1053.41s WALL (    2590 calls)
     g_psi        :     11.60s CPU     11.64s WALL (    2032 calls)

     Called by h_psi:
     h_psi:calbec :   1084.88s CPU   1085.64s WALL (    2590 calls)
     vloc_psi     :    986.51s CPU   1025.54s WALL (    2590 calls)
     add_vuspsi   :   1053.28s CPU   1053.43s WALL (    2590 calls)

     General routines
     calbec       :   2016.86s CPU   2018.02s WALL (    4048 calls)
     fft          :     12.46s CPU     13.64s WALL (     462 calls)
     ffts         :      0.69s CPU      0.72s WALL (      59 calls)
     fftw         :    969.57s CPU   1008.61s WALL (  339302 calls)
     interpolate  :      1.38s CPU      1.47s WALL (      30 calls)

     Parallel routines

     PWSCF        :      2h28m CPU      2h30m WALL


   This run was terminated on:  19:22:10   5Oct2026            

=------------------------------------------------------------------------------=
   JOB DONE.
=------------------------------------------------------------------------------=
