
     Program PWSCF v.7.6 starts on  4Oct2026 at 21:14:36 

     This program is part of the open-source Quantum ESPRESSO suite
     for quantum simulation of materials; please cite
         "P. Giannozzi et al., J. Phys.:Condens. Matter 21 395502 (2009);
         "P. Giannozzi et al., J. Phys.:Condens. Matter 29 465901 (2017);
         "P. Giannozzi et al., J. Chem. Phys. 152 154105 (2020);
          URL http://www.quantum-espresso.org", 
     in publications or presentations arising from this work. More details at
     http://www.quantum-espresso.org/quote

     Parallel version (MPI), running on     6 processors

     MPI processes distributed on     1 nodes
     3407 MiB available memory on the printing compute node when the environment starts

     Reading input from conv/e40.in
Warning: card &CELL ignored
Warning: card   CELL_DYNAMICS  = 'BFGS' ignored
Warning: card   PRESS          = 0.0 ignored
Warning: card   PRESS_CONV_THR = 0.5 ignored
Warning: card   CELL_DOFREE    = 'ALL' ignored

     Current dimensions of program PWSCF are:
     Max number of different atomic species (ntypx) = 10
     Max number of k-points (npk) =  40000
     Max angular momentum in pseudopotentials (lmaxx) =  4
     file Pb.pbesol-dn-kjpaw_psl.0.2.2.UPF: wavefunction(s)  6S renormalized
     Message from routine setup:
     using ibrav=0 with symmetry is DISCOURAGED, use correct ibrav instead

     R & G space division:  proc/nbgrp/npool/nimage =       6
     Subspace diagonalization in iterative solution of the eigenvalue problem:
     a serial algorithm will be used


     Parallelization info
     --------------------
     sticks:   dense  smooth     PW     G-vecs:    dense   smooth      PW
     Min        1152     574    158               102998    36430    5198
     Max        1153     575    159               103001    36435    5199
     Sum        6915    3447    949               617993   218597   31189

     Using Slab Decomposition



     bravais-lattice index     =            0
     lattice parameter (alat)  =      16.2074  a.u.
     unit-cell volume          =    6392.8915 (a.u.)^3
     number of atoms/cell      =           20
     number of atomic types    =            3
     number of electrons       =       176.00
     number of Kohn-Sham states=           88
     kinetic-energy cutoff     =      40.0000  Ry
     charge density cutoff     =     320.0000  Ry
     scf convergence threshold =      1.0E-07
     mixing beta               =       0.5000
     number of iterations used =            8  plain     mixing
     Exchange-correlation= SLA  PW   PSX  PSC
                           (   1   4  10   8   0   0   0)

     celldm(1)=  16.207425  celldm(2)=   0.000000  celldm(3)=   0.000000
     celldm(4)=   0.000000  celldm(5)=   0.000000  celldm(6)=   0.000000

     crystal axes: (cart. coord. in units of alat)
               a(1) = (   1.000000   0.000000   0.000000 )  
               a(2) = (   0.000000   1.032589   0.000000 )  
               a(3) = (   0.000000   0.000000   1.454213 )  

     reciprocal axes: (cart. coord. in units 2 pi/alat)
               b(1) = (  1.000000  0.000000  0.000000 )  
               b(2) = (  0.000000  0.968440  0.000000 )  
               b(3) = (  0.000000  0.000000  0.687657 )  


     PseudoPot. # 1 for Cs read from file:
     /home/duydao/pseudo_pbesol/cs_pbesol_v1.uspp.F.UPF
     MD5 check sum: ae4559e5c840913b791237f814e2d884
     Pseudo is Ultrasoft + core correction, Zval =  9.0
     Generated by new atomic code, or converted to UPF format
     Using radial grid of  905 points,  6 beta functions with: 
                l(1) =   0
                l(2) =   0
                l(3) =   1
                l(4) =   1
                l(5) =   2
                l(6) =   2
     Q(r) pseudized with  6 coefficients,  rinner =    1.500   1.500   1.500
                                                       1.500   1.500

     PseudoPot. # 2 for Pb read from file:
     /home/duydao/pseudo_pbesol/Pb.pbesol-dn-kjpaw_psl.0.2.2.UPF
     MD5 check sum: df0e0ac60519e244e20a4bf230ae894d
     Pseudo is Projector augmented-wave + core cor, Zval = 14.0
     Generated using "atomic" code by A. Dal Corso  v.6.0 svn rev. 13079
     Shape of augmentation charge: PSQ
     Using radial grid of 1281 points,  6 beta functions with: 
                l(1) =   0
                l(2) =   0
                l(3) =   1
                l(4) =   1
                l(5) =   2
                l(6) =   2
     Q(r) pseudized with 0 coefficients 


     PseudoPot. # 3 for I  read from file:
     /home/duydao/pseudo_pbesol/I.pbesol-n-kjpaw_psl.0.2.UPF
     MD5 check sum: cecf1a22a184a0b1ae701638a037a48d
     Pseudo is Projector augmented-wave + core cor, Zval =  7.0
     Generated using "atomic" code by A. Dal Corso  v.6.0 svn rev. 13079
     Shape of augmentation charge: PSQ
     Using radial grid of 1247 points,  4 beta functions with: 
                l(1) =   0
                l(2) =   0
                l(3) =   1
                l(4) =   1
     Q(r) pseudized with 0 coefficients 


     atomic species   valence    mass     pseudopotential
     Cs                9.00   132.90500     Cs( 1.00)
     Pb               14.00   207.20000     Pb( 1.00)
     I                 7.00   126.90400     I ( 1.00)

      8 Sym. Ops., with inversion, found ( 6 have fractional translation)



   Cartesian axes

     site n.     atom                  positions (alat units)
         1        Cs     tau(   1) = (   0.5050900   0.4749392   0.3635532  )
         2        Cs     tau(   2) = (   0.4949100   0.5576495   1.0906595  )
         3        Cs     tau(   3) = (   0.0050900   0.0413552   1.0906595  )
         4        Cs     tau(   4) = (   0.9949100   0.9912335   0.3635532  )
         5        Pb     tau(   5) = (   0.5000000   0.0000000   0.0000000  )
         6        Pb     tau(   6) = (   0.5000000   0.0000000   0.7271063  )
         7        Pb     tau(   7) = (   0.0000000   0.5162943   0.0000000  )
         8        Pb     tau(   8) = (   0.0000000   0.5162943   0.7271063  )
         9        I      tau(   9) = (   0.5620200   0.0011668   0.3635532  )
        10        I      tau(  10) = (   0.4379800   1.0314218   1.0906595  )
        11        I      tau(  11) = (   0.0620200   0.5151275   1.0906595  )
        12        I      tau(  12) = (   0.9379800   0.5174612   0.3635532  )
        13        I      tau(  13) = (   0.6973100   0.3153319   1.4021954  )
        14        I      tau(  14) = (   0.3026900   0.7172567   0.6750891  )
        15        I      tau(  15) = (   0.1973100   0.2009624   0.0520172  )
        16        I      tau(  16) = (   0.8026900   0.8316263   0.7791235  )
        17        I      tau(  17) = (   0.3026900   0.7172567   0.0520172  )
        18        I      tau(  18) = (   0.6973100   0.3153319   0.7791235  )
        19        I      tau(  19) = (   0.8026900   0.8316263   1.4021954  )
        20        I      tau(  20) = (   0.1973100   0.2009624   0.6750891  )

     number of k points=    18
                       cart. coord. in units 2pi/alat
        k(    1) = (   0.0000000   0.0000000   0.0000000), wk =   0.0416667
        k(    2) = (   0.0000000   0.0000000   0.2292191), wk =   0.0833333
        k(    3) = (   0.0000000   0.2421100   0.0000000), wk =   0.0833333
        k(    4) = (   0.0000000   0.2421100   0.2292191), wk =   0.1666667
        k(    5) = (   0.0000000  -0.4842199   0.0000000), wk =   0.0416667
        k(    6) = (   0.0000000  -0.4842199   0.2292191), wk =   0.0833333
        k(    7) = (   0.2500000   0.0000000   0.0000000), wk =   0.0833333
        k(    8) = (   0.2500000   0.0000000   0.2292191), wk =   0.1666667
        k(    9) = (   0.2500000   0.2421100   0.0000000), wk =   0.1666667
        k(   10) = (   0.2500000   0.2421100   0.2292191), wk =   0.3333333
        k(   11) = (   0.2500000  -0.4842199   0.0000000), wk =   0.0833333
        k(   12) = (   0.2500000  -0.4842199   0.2292191), wk =   0.1666667
        k(   13) = (  -0.5000000   0.0000000   0.0000000), wk =   0.0416667
        k(   14) = (  -0.5000000   0.0000000   0.2292191), wk =   0.0833333
        k(   15) = (  -0.5000000   0.2421100   0.0000000), wk =   0.0833333
        k(   16) = (  -0.5000000   0.2421100   0.2292191), wk =   0.1666667
        k(   17) = (  -0.5000000  -0.4842199   0.0000000), wk =   0.0416667
        k(   18) = (  -0.5000000  -0.4842199   0.2292191), wk =   0.0833333

     Dense  grid:   617993 G-vectors     FFT dimensions: (  96,  96, 144)

     Smooth grid:   218597 G-vectors     FFT dimensions: (  72,  72,  96)

     Estimated max dynamical RAM per process >     547.48 MB

     Estimated total dynamical RAM >       3.21 GB

     Initial potential from superposition of free atoms

     starting charge     175.8397, renormalised to     176.0000
     Starting wfcs are  136 randomized atomic wfcs
     Checking if some PAW data can be deallocated... 

     total cpu time spent up to now is       60.7 secs

     Self-consistent Calculation

     iteration #  1     ecut=    40.00 Ry     beta= 0.50
     Davidson diagonalization with overlap
     ethr =  1.00E-02,  avg # of iterations =  1.7

     Threshold (ethr) on eigenvalues was too large:
     Diagonalizing with lowered threshold

     Davidson diagonalization with overlap
     ethr =  2.25E-04,  avg # of iterations =  5.1

     total cpu time spent up to now is      278.9 secs

     total energy              =   -8165.73399092 Ry
     estimated scf accuracy    <       0.34959457 Ry

     iteration #  2     ecut=    40.00 Ry     beta= 0.50
     Davidson diagonalization with overlap
     ethr =  1.99E-04,  avg # of iterations =  3.3

     total cpu time spent up to now is      403.9 secs

     total energy              =   -8165.82856537 Ry
     estimated scf accuracy    <       0.01443819 Ry

     iteration #  3     ecut=    40.00 Ry     beta= 0.50
     Davidson diagonalization with overlap
     ethr =  8.20E-06,  avg # of iterations =  4.8

     negative rho (up, down):  1.589E-07 0.000E+00

     total cpu time spent up to now is      571.0 secs

     total energy              =   -8165.83885824 Ry
     estimated scf accuracy    <       0.00558181 Ry

     iteration #  4     ecut=    40.00 Ry     beta= 0.50
     Davidson diagonalization with overlap
     ethr =  3.17E-06,  avg # of iterations =  2.5

     negative rho (up, down):  5.034E-06 0.000E+00

     total cpu time spent up to now is      699.3 secs

     total energy              =   -8165.83999109 Ry
     estimated scf accuracy    <       0.00059507 Ry

     iteration #  5     ecut=    40.00 Ry     beta= 0.50
     Davidson diagonalization with overlap
     ethr =  3.38E-07,  avg # of iterations =  4.3

     negative rho (up, down):  4.418E-06 0.000E+00

     total cpu time spent up to now is      854.9 secs

     total energy              =   -8165.84012608 Ry
     estimated scf accuracy    <       0.00036042 Ry

     iteration #  6     ecut=    40.00 Ry     beta= 0.50
     Davidson diagonalization with overlap
     ethr =  2.05E-07,  avg # of iterations =  1.3

     negative rho (up, down):  2.369E-06 0.000E+00

     total cpu time spent up to now is      947.9 secs

     total energy              =   -8165.84004501 Ry
     estimated scf accuracy    <       0.00022905 Ry

     iteration #  7     ecut=    40.00 Ry     beta= 0.50
     Davidson diagonalization with overlap
     ethr =  1.30E-07,  avg # of iterations =  4.0

     negative rho (up, down):  2.369E-06 0.000E+00

     total cpu time spent up to now is     1098.5 secs

     total energy              =   -8165.84010900 Ry
     estimated scf accuracy    <       0.00005888 Ry

     iteration #  8     ecut=    40.00 Ry     beta= 0.50
     Davidson diagonalization with overlap
     ethr =  3.35E-08,  avg # of iterations =  1.9

     negative rho (up, down):  2.266E-06 0.000E+00

     total cpu time spent up to now is     1196.9 secs

     total energy              =   -8165.84010279 Ry
     estimated scf accuracy    <       0.00002286 Ry

     iteration #  9     ecut=    40.00 Ry     beta= 0.50
     Davidson diagonalization with overlap
     ethr =  1.30E-08,  avg # of iterations =  4.2

     negative rho (up, down):  2.232E-06 0.000E+00

     total cpu time spent up to now is     1336.0 secs

     total energy              =   -8165.84010925 Ry
     estimated scf accuracy    <       0.00000587 Ry

     iteration # 10     ecut=    40.00 Ry     beta= 0.50
     Davidson diagonalization with overlap
     ethr =  3.33E-09,  avg # of iterations =  2.6

     negative rho (up, down):  2.209E-06 0.000E+00

     total cpu time spent up to now is     1439.5 secs

     total energy              =   -8165.84010873 Ry
     estimated scf accuracy    <       0.00000315 Ry

     iteration # 11     ecut=    40.00 Ry     beta= 0.50
     Davidson diagonalization with overlap
     ethr =  1.79E-09,  avg # of iterations =  2.9

     negative rho (up, down):  2.208E-06 0.000E+00

     total cpu time spent up to now is     1551.7 secs

     total energy              =   -8165.84010891 Ry
     estimated scf accuracy    <       0.00000041 Ry

     iteration # 12     ecut=    40.00 Ry     beta= 0.50
     Davidson diagonalization with overlap
     ethr =  2.32E-10,  avg # of iterations =  6.0

     negative rho (up, down):  2.210E-06 0.000E+00

     total cpu time spent up to now is     1788.8 secs

     total energy              =   -8165.84010933 Ry
     estimated scf accuracy    <       0.00000029 Ry

     iteration # 13     ecut=    40.00 Ry     beta= 0.50
     Davidson diagonalization with overlap
     ethr =  1.65E-10,  avg # of iterations =  1.1

     negative rho (up, down):  2.210E-06 0.000E+00

     total cpu time spent up to now is     1878.6 secs

     total energy              =   -8165.84010931 Ry
     estimated scf accuracy    <       0.00000013 Ry

     iteration # 14     ecut=    40.00 Ry     beta= 0.50
     Davidson diagonalization with overlap
     ethr =  7.47E-11,  avg # of iterations =  2.0

     negative rho (up, down):  2.215E-06 0.000E+00

     total cpu time spent up to now is     1982.5 secs

     End of self-consistent calculation

          k = 0.0000 0.0000 0.0000 ( 27347 PWs)   bands (ev):

   -17.5555 -17.5549 -17.5543 -17.5537 -13.2641 -13.2576 -13.2539 -13.2539
   -13.2497 -13.2427 -13.2338 -13.2337 -13.2047 -13.2047 -13.2042 -13.2042
   -13.1991 -13.1989 -13.1986 -13.1983 -13.1945 -13.1942 -13.1940 -13.1937
    -8.9433  -8.7241  -8.5282  -8.4756  -8.4660  -8.4050  -8.4010  -8.3897
    -8.3849  -8.2153  -8.1869  -8.1838  -5.1571  -4.6282  -4.4022  -4.3999
    -4.3924  -4.3807  -4.3792  -4.3770  -4.3708  -4.3704  -4.3703  -4.3611
    -4.3433  -4.3398  -4.1177  -3.6228  -0.2152  -0.1282  -0.1048  -0.0247
     0.0257   0.0387   0.9987   1.2381   1.2502   1.2557   1.2670   1.3837
     1.5650   1.7364   1.7633   1.7721   1.8231   1.8262   1.8787   1.9303
     1.9316   1.9320   1.9888   2.0185   2.0363   2.1584   2.2287   2.2456
     2.2510   2.2533   2.3329   2.4054   2.5013   2.5556   2.8160   3.2828

          k = 0.0000 0.0000 0.2292 ( 27348 PWs)   bands (ev):

   -17.5553 -17.5550 -17.5541 -17.5538 -13.2604 -13.2544 -13.2540 -13.2533
   -13.2533 -13.2464 -13.2338 -13.2337 -13.2046 -13.2046 -13.2043 -13.2043
   -13.1991 -13.1990 -13.1985 -13.1984 -13.1944 -13.1943 -13.1939 -13.1938
    -8.9060  -8.8067  -8.5131  -8.4818  -8.4022  -8.3986  -8.3942  -8.3891
    -8.3808  -8.2624  -8.1858  -8.1843  -5.0337  -4.7675  -4.3997  -4.3961
    -4.3932  -4.3782  -4.3749  -4.3696  -4.3664  -4.3649  -4.3632  -4.3602
    -4.3577  -4.3524  -4.0336  -3.7858  -0.1018  -0.0810  -0.0451  -0.0411
     0.2209   0.4199   0.9716   1.0531   1.1660   1.2686   1.2866   1.3108
     1.4023   1.4569   1.6940   1.7821   1.7914   1.8542   1.9040   1.9258
     1.9815   1.9919   1.9956   2.0040   2.0697   2.1384   2.1589   2.1748
     2.2292   2.2303   2.3074   2.3277   2.4631   2.4660   2.8450   2.9896

          k = 0.0000 0.2421 0.0000 ( 27316 PWs)   bands (ev):

   -17.5553 -17.5547 -17.5544 -17.5539 -13.2631 -13.2585 -13.2510 -13.2510
   -13.2486 -13.2437 -13.2367 -13.2367 -13.2047 -13.2047 -13.2042 -13.2042
   -13.1990 -13.1988 -13.1987 -13.1984 -13.1944 -13.1941 -13.1941 -13.1938
    -8.9036  -8.6818  -8.6421  -8.4746  -8.4659  -8.4472  -8.3707  -8.3563
    -8.3292  -8.2246  -8.2167  -8.2159  -5.0257  -4.5323  -4.4381  -4.4022
    -4.3926  -4.3872  -4.3773  -4.3721  -4.3671  -4.3666  -4.3632  -4.3609
    -4.3467  -4.3107  -4.2380  -3.7925  -0.1763  -0.0186   0.0418   0.1568
     0.1749   0.2645   1.0535   1.1470   1.1499   1.2232   1.3003   1.3008
     1.4030   1.4032   1.5953   1.6415   1.8400   1.8551   1.8632   1.9031
     1.9482   1.9976   2.0053   2.0153   2.0162   2.0751   2.1461   2.1558
     2.2277   2.2341   2.3436   2.3485   2.5052   2.5467   2.5864   2.9670

          k = 0.0000 0.2421 0.2292 ( 27314 PWs)   bands (ev):

   -17.5552 -17.5548 -17.5543 -17.5540 -13.2595 -13.2549 -13.2523 -13.2511
   -13.2509 -13.2473 -13.2367 -13.2367 -13.2046 -13.2046 -13.2043 -13.2043
   -13.1990 -13.1989 -13.1986 -13.1985 -13.1944 -13.1942 -13.1940 -13.1939
    -8.8668  -8.7677  -8.6154  -8.5449  -8.3829  -8.3828  -8.3661  -8.3597
    -8.3414  -8.2680  -8.2169  -8.2163  -4.9076  -4.6545  -4.4040  -4.3967
    -4.3880  -4.3803  -4.3777  -4.3750  -4.3653  -4.3653  -4.3577  -4.3572
    -4.3550  -4.3430  -4.1790  -3.9483   0.0713   0.1096   0.1341   0.2071
     0.3082   0.3710   0.9923   1.0870   1.1411   1.1606   1.1904   1.2632
     1.3479   1.4125   1.4717   1.6283   1.6678   1.7749   1.7828   1.8744
     1.8845   1.9531   1.9883   2.0074   2.1217   2.1326   2.1794   2.1842
     2.2095   2.2260   2.3039   2.3117   2.4753   2.4804   2.5637   2.6841

          k = 0.0000-0.4842 0.0000 ( 27362 PWs)   bands (ev):

   -17.5549 -17.5549 -17.5543 -17.5543 -13.2608 -13.2608 -13.2464 -13.2464
   -13.2439 -13.2439 -13.2437 -13.2437 -13.2047 -13.2047 -13.2042 -13.2042
   -13.1989 -13.1989 -13.1986 -13.1986 -13.1943 -13.1943 -13.1940 -13.1940
    -8.7937  -8.7937  -8.5718  -8.5718  -8.4710  -8.4710  -8.2966  -8.2966
    -8.2865  -8.2865  -8.2571  -8.2571  -4.7081  -4.7081  -4.4099  -4.4099
    -4.3813  -4.3813  -4.3722  -4.3722  -4.3669  -4.3669  -4.3595  -4.3595
    -4.3387  -4.3387  -4.1272  -4.1272  -0.1026  -0.1026   0.4831   0.4831
     0.6503   0.6503   0.7579   0.7579   0.9169   0.9169   1.1726   1.1726
     1.4296   1.4296   1.5973   1.5973   1.6930   1.6930   1.8876   1.8876
     1.9309   1.9309   2.0022   2.0022   2.0327   2.0327   2.1675   2.1675
     2.1855   2.1855   2.3007   2.3007   2.4330   2.4330   2.6746   2.6746

          k = 0.0000-0.4842 0.2292 ( 27314 PWs)   bands (ev):

   -17.5547 -17.5547 -17.5544 -17.5544 -13.2572 -13.2572 -13.2499 -13.2499
   -13.2439 -13.2439 -13.2438 -13.2438 -13.2046 -13.2046 -13.2043 -13.2043
   -13.1988 -13.1988 -13.1987 -13.1987 -13.1942 -13.1942 -13.1941 -13.1941
    -8.7593  -8.7593  -8.6654  -8.6654  -8.3793  -8.3793  -8.2948  -8.2948
    -8.2896  -8.2896  -8.2879  -8.2879  -4.6015  -4.6015  -4.4278  -4.4278
    -4.3833  -4.3833  -4.3782  -4.3782  -4.3673  -4.3673  -4.3587  -4.3587
    -4.3350  -4.3350  -4.2514  -4.2514   0.2612   0.2612   0.5197   0.5197
     0.5947   0.5947   0.8117   0.8117   0.8289   0.8289   1.0688   1.0688
     1.5049   1.5049   1.5762   1.5762   1.6570   1.6570   1.7337   1.7337
     1.7824   1.7824   1.8147   1.8147   2.1660   2.1660   2.2156   2.2156
     2.2398   2.2398   2.2806   2.2806   2.4325   2.4325   2.4799   2.4799

          k = 0.2500 0.0000 0.0000 ( 27315 PWs)   bands (ev):

   -17.5553 -17.5547 -17.5544 -17.5539 -13.2631 -13.2585 -13.2510 -13.2510
   -13.2486 -13.2437 -13.2367 -13.2367 -13.2047 -13.2047 -13.2042 -13.2042
   -13.1990 -13.1988 -13.1987 -13.1984 -13.1944 -13.1942 -13.1941 -13.1938
    -8.9045  -8.6809  -8.6432  -8.4753  -8.4677  -8.4424  -8.3767  -8.3608
    -8.3242  -8.2216  -8.2173  -8.2159  -5.0265  -4.5387  -4.4324  -4.3938
    -4.3919  -4.3858  -4.3853  -4.3801  -4.3724  -4.3683  -4.3574  -4.3555
    -4.3546  -4.2925  -4.2351  -3.7918  -0.1803  -0.0201   0.0543   0.1439
     0.1894   0.2648   1.0090   1.0545   1.1699   1.2101   1.3008   1.3009
     1.3386   1.4645   1.6242   1.7117   1.8237   1.8591   1.8790   1.9045
     1.9543   2.0341   2.0483   2.0491   2.0498   2.0674   2.0774   2.1979
     2.2357   2.2548   2.3650   2.3667   2.4313   2.5222   2.5630   2.9030

          k = 0.2500 0.0000 0.2292 ( 27308 PWs)   bands (ev):

   -17.5552 -17.5548 -17.5543 -17.5540 -13.2594 -13.2549 -13.2522 -13.2511
   -13.2509 -13.2473 -13.2367 -13.2367 -13.2046 -13.2046 -13.2043 -13.2043
   -13.1990 -13.1989 -13.1986 -13.1985 -13.1944 -13.1942 -13.1940 -13.1939
    -8.8674  -8.7677  -8.6158  -8.5445  -8.3860  -8.3829  -8.3716  -8.3621
    -8.3354  -8.2649  -8.2165  -8.2159  -4.9097  -4.6600  -4.4054  -4.3931
    -4.3890  -4.3861  -4.3725  -4.3693  -4.3681  -4.3644  -4.3594  -4.3592
    -4.3527  -4.3299  -4.1772  -3.9471   0.0824   0.0938   0.1508   0.2157
     0.2925   0.3667   0.9678   1.0298   1.0825   1.1803   1.1919   1.2056
     1.4088   1.4242   1.4705   1.5819   1.7518   1.7584   1.8696   1.8758
     1.9572   1.9744   2.0570   2.0665   2.0796   2.1236   2.1416   2.1791
     2.2305   2.2459   2.3039   2.3342   2.4177   2.4437   2.5231   2.6008

          k = 0.2500 0.2421 0.0000 ( 27319 PWs)   bands (ev):

   -17.5552 -17.5546 -17.5545 -17.5540 -13.2630 -13.2595 -13.2514 -13.2483
   -13.2462 -13.2449 -13.2385 -13.2375 -13.2047 -13.2047 -13.2042 -13.2042
   -13.1990 -13.1988 -13.1987 -13.1985 -13.1944 -13.1941 -13.1941 -13.1939
    -8.8691  -8.6775  -8.6399  -8.4766  -8.4702  -8.4213  -8.4069  -8.4042
    -8.2910  -8.2536  -8.2512  -8.1941  -4.9228  -4.4904  -4.4809  -4.3923
    -4.3879  -4.3819  -4.3803  -4.3731  -4.3675  -4.3664  -4.3604  -4.3552
    -4.3538  -4.2848  -4.2511  -3.8828  -0.1646  -0.0683  -0.0616   0.0943
     0.5472   0.6778   0.6879   0.8972   1.0841   1.1247   1.1532   1.3716
     1.4013   1.5403   1.6422   1.7765   1.7775   1.8576   1.8741   1.9169
     1.9386   1.9547   1.9827   1.9998   2.0528   2.1034   2.1362   2.1705
     2.1816   2.1861   2.2651   2.3291   2.4479   2.5473   2.5871   2.9066

          k = 0.2500 0.2421 0.2292 ( 27299 PWs)   bands (ev):

   -17.5550 -17.5547 -17.5544 -17.5541 -13.2595 -13.2560 -13.2534 -13.2491
   -13.2481 -13.2469 -13.2384 -13.2380 -13.2046 -13.2046 -13.2043 -13.2043
   -13.1989 -13.1988 -13.1986 -13.1985 -13.1943 -13.1942 -13.1941 -13.1939
    -8.8320  -8.7317  -8.6456  -8.5606  -8.4113  -8.4069  -8.3808  -8.3411
    -8.3046  -8.2755  -8.2459  -8.2191  -4.8110  -4.5788  -4.4313  -4.3933
    -4.3847  -4.3834  -4.3749  -4.3669  -4.3654  -4.3633  -4.3593  -4.3556
    -4.3517  -4.3124  -4.2465  -4.0339  -0.0375   0.0207   0.2178   0.3357
     0.5920   0.6117   0.7524   0.8171   0.9923   1.1062   1.1481   1.2005
     1.3954   1.4789   1.5310   1.6184   1.7093   1.7499   1.7991   1.8506
     1.8900   1.9622   2.0374   2.0510   2.0987   2.1323   2.1496   2.1664
     2.2080   2.2252   2.2659   2.3121   2.4114   2.4220   2.5398   2.6322

          k = 0.2500-0.4842 0.0000 ( 27304 PWs)   bands (ev):

   -17.5549 -17.5549 -17.5543 -17.5543 -13.2617 -13.2617 -13.2493 -13.2493
   -13.2430 -13.2430 -13.2407 -13.2407 -13.2047 -13.2047 -13.2042 -13.2042
   -13.1988 -13.1988 -13.1986 -13.1986 -13.1942 -13.1942 -13.1940 -13.1940
    -8.7766  -8.7766  -8.5342  -8.5342  -8.4743  -8.4743  -8.3662  -8.3662
    -8.3316  -8.3316  -8.2073  -8.2073  -4.6865  -4.6865  -4.4051  -4.4051
    -4.3816  -4.3816  -4.3710  -4.3710  -4.3630  -4.3630  -4.3614  -4.3614
    -4.3417  -4.3417  -4.0910  -4.0910  -0.1160  -0.1160   0.1634   0.1634
     0.3405   0.3405   1.0090   1.0090   1.0844   1.0844   1.2502   1.2502
     1.4808   1.4808   1.6952   1.6952   1.7975   1.7975   1.8835   1.8835
     1.9534   1.9534   2.0031   2.0031   2.0522   2.0522   2.1156   2.1156
     2.1361   2.1361   2.2315   2.2315   2.4699   2.4699   2.7070   2.7070

          k = 0.2500-0.4842 0.2292 ( 27326 PWs)   bands (ev):

   -17.5547 -17.5547 -17.5544 -17.5544 -13.2583 -13.2583 -13.2519 -13.2519
   -13.2428 -13.2428 -13.2418 -13.2418 -13.2046 -13.2046 -13.2043 -13.2043
   -13.1988 -13.1988 -13.1987 -13.1987 -13.1942 -13.1942 -13.1941 -13.1941
    -8.7406  -8.7406  -8.6419  -8.6419  -8.3958  -8.3958  -8.3701  -8.3701
    -8.3046  -8.3046  -8.2367  -8.2367  -4.5877  -4.5877  -4.4342  -4.4342
    -4.3784  -4.3784  -4.3743  -4.3743  -4.3618  -4.3618  -4.3547  -4.3547
    -4.3329  -4.3329  -4.2174  -4.2174   0.1709   0.1709   0.2328   0.2328
     0.3537   0.3537   1.0305   1.0305   1.0541   1.0541   1.0934   1.0934
     1.4137   1.4137   1.5880   1.5880   1.7246   1.7246   1.8249   1.8249
     1.9343   1.9343   1.9576   1.9576   2.1193   2.1193   2.1509   2.1509
     2.2140   2.2140   2.2406   2.2406   2.4380   2.4380   2.4657   2.4657

          k =-0.5000 0.0000 0.0000 ( 27324 PWs)   bands (ev):

   -17.5549 -17.5549 -17.5542 -17.5542 -13.2608 -13.2608 -13.2463 -13.2463
   -13.2439 -13.2439 -13.2437 -13.2437 -13.2047 -13.2047 -13.2042 -13.2042
   -13.1989 -13.1989 -13.1986 -13.1986 -13.1943 -13.1943 -13.1940 -13.1940
    -8.7957  -8.7957  -8.5686  -8.5686  -8.4728  -8.4728  -8.3062  -8.3062
    -8.2898  -8.2898  -8.2452  -8.2452  -4.7096  -4.7096  -4.4146  -4.4146
    -4.3813  -4.3813  -4.3775  -4.3775  -4.3671  -4.3671  -4.3565  -4.3565
    -4.3290  -4.3290  -4.1168  -4.1168  -0.1069  -0.1069   0.4811   0.4811
     0.6679   0.6679   0.7317   0.7317   0.9111   0.9111   1.1109   1.1109
     1.3952   1.3952   1.6510   1.6510   1.7590   1.7590   1.9080   1.9080
     1.9091   1.9091   2.0513   2.0513   2.0597   2.0597   2.1852   2.1852
     2.2520   2.2520   2.3015   2.3015   2.3249   2.3249   2.6096   2.6096

          k =-0.5000 0.0000 0.2292 ( 27244 PWs)   bands (ev):

   -17.5547 -17.5547 -17.5544 -17.5544 -13.2571 -13.2571 -13.2499 -13.2499
   -13.2439 -13.2439 -13.2438 -13.2438 -13.2046 -13.2046 -13.2043 -13.2043
   -13.1988 -13.1988 -13.1987 -13.1987 -13.1942 -13.1942 -13.1941 -13.1941
    -8.7610  -8.7610  -8.6646  -8.6646  -8.3810  -8.3810  -8.3109  -8.3109
    -8.2920  -8.2920  -8.2686  -8.2686  -4.6078  -4.6078  -4.4412  -4.4412
    -4.3817  -4.3817  -4.3763  -4.3763  -4.3694  -4.3694  -4.3525  -4.3525
    -4.3246  -4.3246  -4.2380  -4.2380   0.2545   0.2545   0.5153   0.5153
     0.6216   0.6216   0.7397   0.7397   0.8478   0.8478   1.0106   1.0106
     1.4596   1.4596   1.6398   1.6398   1.6609   1.6609   1.7649   1.7649
     1.8715   1.8715   1.9194   1.9194   2.1572   2.1572   2.2104   2.2104
     2.2478   2.2478   2.3108   2.3108   2.3324   2.3324   2.3880   2.3880

          k =-0.5000 0.2421 0.0000 ( 27332 PWs)   bands (ev):

   -17.5549 -17.5549 -17.5542 -17.5542 -13.2617 -13.2617 -13.2494 -13.2494
   -13.2430 -13.2430 -13.2407 -13.2407 -13.2047 -13.2047 -13.2042 -13.2042
   -13.1988 -13.1988 -13.1986 -13.1986 -13.1942 -13.1942 -13.1940 -13.1940
    -8.7778  -8.7778  -8.5319  -8.5319  -8.4754  -8.4754  -8.3669  -8.3669
    -8.3340  -8.3340  -8.2054  -8.2054  -4.6872  -4.6872  -4.4092  -4.4092
    -4.3804  -4.3804  -4.3704  -4.3704  -4.3667  -4.3667  -4.3604  -4.3604
    -4.3348  -4.3348  -4.0865  -4.0865  -0.1185  -0.1185   0.1614   0.1614
     0.3457   0.3457   0.9794   0.9794   1.0740   1.0740   1.2566   1.2566
     1.4676   1.4676   1.7009   1.7009   1.8383   1.8383   1.9024   1.9024
     1.9389   1.9389   2.0383   2.0383   2.0487   2.0487   2.1057   2.1057
     2.1729   2.1729   2.2212   2.2212   2.4405   2.4405   2.6794   2.6794

          k =-0.5000 0.2421 0.2292 ( 27304 PWs)   bands (ev):

   -17.5547 -17.5547 -17.5544 -17.5544 -13.2582 -13.2582 -13.2520 -13.2520
   -13.2428 -13.2428 -13.2418 -13.2418 -13.2046 -13.2046 -13.2043 -13.2043
   -13.1988 -13.1988 -13.1987 -13.1987 -13.1942 -13.1942 -13.1941 -13.1941
    -8.7416  -8.7416  -8.6413  -8.6413  -8.3988  -8.3988  -8.3684  -8.3684
    -8.3056  -8.3056  -8.2350  -8.2350  -4.5908  -4.5908  -4.4397  -4.4397
    -4.3794  -4.3794  -4.3718  -4.3718  -4.3634  -4.3634  -4.3522  -4.3522
    -4.3267  -4.3267  -4.2116  -4.2116   0.1696   0.1696   0.2326   0.2326
     0.3508   0.3508   0.9751   0.9751   1.0692   1.0692   1.0970   1.0970
     1.4031   1.4031   1.6008   1.6008   1.7265   1.7265   1.8805   1.8805
     1.9627   1.9627   2.0240   2.0240   2.0884   2.0884   2.1386   2.1386
     2.1981   2.1981   2.2464   2.2464   2.4118   2.4118   2.4253   2.4253

          k =-0.5000-0.4842 0.0000 ( 27340 PWs)   bands (ev):

   -17.5548 -17.5548 -17.5543 -17.5543 -13.2625 -13.2625 -13.2510 -13.2510
   -13.2422 -13.2422 -13.2390 -13.2390 -13.2047 -13.2047 -13.2042 -13.2042
   -13.1988 -13.1988 -13.1986 -13.1986 -13.1942 -13.1942 -13.1940 -13.1940
    -8.7568  -8.7568  -8.4801  -8.4801  -8.4525  -8.4525  -8.4208  -8.4208
    -8.4088  -8.4088  -8.1849  -8.1849  -4.6648  -4.6648  -4.4040  -4.4040
    -4.3798  -4.3798  -4.3660  -4.3660  -4.3625  -4.3625  -4.3564  -4.3564
    -4.3473  -4.3473  -4.0573  -4.0573  -0.1350  -0.1350  -0.0162  -0.0162
     0.1842   0.1842   0.9818   0.9818   1.1643   1.1643   1.5095   1.5095
     1.5327   1.5327   1.7451   1.7451   1.7565   1.7565   1.8972   1.8972
     1.9441   1.9441   1.9895   1.9895   2.0450   2.0450   2.0522   2.0522
     2.0653   2.0653   2.3127   2.3127   2.5311   2.5311   2.7918   2.7918

          k =-0.5000-0.4842 0.2292 ( 27304 PWs)   bands (ev):

   -17.5547 -17.5547 -17.5544 -17.5544 -13.2592 -13.2592 -13.2534 -13.2534
   -13.2418 -13.2418 -13.2403 -13.2403 -13.2046 -13.2046 -13.2043 -13.2043
   -13.1988 -13.1988 -13.1987 -13.1987 -13.1942 -13.1942 -13.1941 -13.1941
    -8.7185  -8.7185  -8.6123  -8.6123  -8.4193  -8.4193  -8.4166  -8.4166
    -8.3173  -8.3173  -8.2190  -8.2190  -4.5743  -4.5743  -4.4385  -4.4385
    -4.3745  -4.3745  -4.3711  -4.3711  -4.3564  -4.3564  -4.3485  -4.3485
    -4.3299  -4.3299  -4.1859  -4.1859   0.0204   0.0204   0.0772   0.0772
     0.3104   0.3104   1.0589   1.0589   1.0600   1.0600   1.1971   1.1971
     1.4919   1.4919   1.5851   1.5851   1.8319   1.8319   1.9337   1.9337
     1.9613   1.9613   1.9627   1.9627   2.0392   2.0392   2.0401   2.0401
     2.1642   2.1642   2.2981   2.2981   2.5019   2.5019   2.5599   2.5599

     highest occupied level (ev):     3.2828

!    total energy              =   -8165.84010932 Ry
     estimated scf accuracy    <       0.00000003 Ry

     The total energy is the sum of the following terms:
     one-electron contribution =    -334.81086931 Ry
     hartree contribution      =     254.94348914 Ry
     xc contribution           =    -792.71336369 Ry
     ewald contribution        =    -643.62751295 Ry
     one-center paw contrib.   =   -6649.63185250 Ry

     convergence has been achieved in  14 iterations

     negative rho (up, down):  2.215E-06 0.000E+00

     Forces acting on atoms (cartesian axes, Ry/au):

     atom    1 type  1   force =    -0.00326505   -0.00498579    0.00000000
     atom    2 type  1   force =     0.00326505    0.00498579    0.00000000
     atom    3 type  1   force =    -0.00326505    0.00498579    0.00000000
     atom    4 type  1   force =     0.00326505   -0.00498579   -0.00000000
     atom    5 type  2   force =     0.00000000    0.00000000    0.00000000
     atom    6 type  2   force =    -0.00000000    0.00000000   -0.00000000
     atom    7 type  2   force =     0.00000000   -0.00000000    0.00000000
     atom    8 type  2   force =     0.00000000    0.00000000    0.00000000
     atom    9 type  3   force =    -0.00104917    0.00224361    0.00000000
     atom   10 type  3   force =     0.00104917   -0.00224361    0.00000000
     atom   11 type  3   force =    -0.00104917   -0.00224361    0.00000000
     atom   12 type  3   force =     0.00104917    0.00224361    0.00000000
     atom   13 type  3   force =    -0.00367574   -0.00462665    0.00151964
     atom   14 type  3   force =     0.00367574    0.00462665    0.00151964
     atom   15 type  3   force =    -0.00367574    0.00462665   -0.00151964
     atom   16 type  3   force =     0.00367574   -0.00462665   -0.00151964
     atom   17 type  3   force =     0.00367574    0.00462665   -0.00151964
     atom   18 type  3   force =    -0.00367574   -0.00462665   -0.00151964
     atom   19 type  3   force =     0.00367574   -0.00462665    0.00151964
     atom   20 type  3   force =    -0.00367574    0.00462665    0.00151964

     Total force =     0.021550     Total SCF correction =     0.000017


     Computing stress (Cartesian axis) and pressure


     negative rho (up, down):  2.215E-06 0.000E+00
          total   stress  (Ry/bohr**3)                   (kbar)     P=       -1.89
   0.00000816   0.00000000   0.00000000            1.20        0.00        0.00
   0.00000000  -0.00003647   0.00000000            0.00       -5.37        0.00
   0.00000000   0.00000000  -0.00001018            0.00        0.00       -1.50


     Writing all to output data dir ./tmp/conv_e40.save/ :
     XML data file, charge density, pseudopotentials, collected wavefunctions

     init_run     :     59.20s CPU     60.38s WALL (       1 calls)
     electrons    :   1896.50s CPU   1921.84s WALL (       1 calls)
     forces       :     29.18s CPU     29.86s WALL (       1 calls)
     stress       :     96.28s CPU     97.54s WALL (       1 calls)

     Called by init_run:
     wfcinit      :     55.07s CPU     55.56s WALL (       1 calls)
     potinit      :      1.68s CPU      1.78s WALL (       1 calls)
     hinit0       :      0.69s CPU      0.72s WALL (       1 calls)

     Called by electrons:
     c_bands      :   1690.55s CPU   1699.65s WALL (      15 calls)
     sum_band     :    171.11s CPU    180.85s WALL (      15 calls)
     v_of_rho     :      3.10s CPU      3.25s WALL (      15 calls)
     newd         :     20.78s CPU     27.63s WALL (      15 calls)
     PAW_pot      :     12.71s CPU     12.75s WALL (      15 calls)
     mix_rho      :      0.64s CPU      0.66s WALL (      15 calls)

     Called by c_bands:
     init_us_2    :      8.23s CPU      8.25s WALL (     594 calls)
     cegterg      :   1673.22s CPU   1682.27s WALL (     270 calls)

     Called by *egterg:
     cdiaghg      :     26.04s CPU     26.06s WALL (    1109 calls)
     h_psi        :    753.90s CPU    762.32s WALL (    1145 calls)
     s_psi        :    255.42s CPU    255.51s WALL (    1145 calls)
     g_psi        :      2.68s CPU      2.68s WALL (     857 calls)

     Called by h_psi:
     h_psi:calbec :    267.11s CPU    267.31s WALL (    1145 calls)
     vloc_psi     :    227.93s CPU    235.84s WALL (    1145 calls)
     add_vuspsi   :    257.15s CPU    257.19s WALL (    1145 calls)

     General routines
     calbec       :    471.61s CPU    471.95s WALL (    1721 calls)
     fft          :      3.05s CPU      3.27s WALL (     219 calls)
     ffts         :      0.43s CPU      0.43s WALL (      30 calls)
     fftw         :    241.27s CPU    249.55s WALL (  153914 calls)
     interpolate  :      0.57s CPU      0.60s WALL (      15 calls)

     Parallel routines

     PWSCF        :  34m41.90s CPU  35m10.84s WALL


   This run was terminated on:  21:49:46   4Oct2026            

=------------------------------------------------------------------------------=
   JOB DONE.
=------------------------------------------------------------------------------=
