
     Program PWSCF v.7.6 starts on  4Oct2026 at 22:29:48 

     This program is part of the open-source Quantum ESPRESSO suite
     for quantum simulation of materials; please cite
         "P. Giannozzi et al., J. Phys.:Condens. Matter 21 395502 (2009);
         "P. Giannozzi et al., J. Phys.:Condens. Matter 29 465901 (2017);
         "P. Giannozzi et al., J. Chem. Phys. 152 154105 (2020);
          URL http://www.quantum-espresso.org", 
     in publications or presentations arising from this work. More details at
     http://www.quantum-espresso.org/quote

     Parallel version (MPI), running on     6 processors

     MPI processes distributed on     1 nodes
     3311 MiB available memory on the printing compute node when the environment starts

     Reading input from conv/e60.in
Warning: card &CELL ignored
Warning: card   CELL_DYNAMICS  = 'BFGS' ignored
Warning: card   PRESS          = 0.0 ignored
Warning: card   PRESS_CONV_THR = 0.5 ignored
Warning: card   CELL_DOFREE    = 'ALL' ignored

     Current dimensions of program PWSCF are:
     Max number of different atomic species (ntypx) = 10
     Max number of k-points (npk) =  40000
     Max angular momentum in pseudopotentials (lmaxx) =  4
     file Pb.pbesol-dn-kjpaw_psl.0.2.2.UPF: wavefunction(s)  6S renormalized
     Message from routine setup:
     using ibrav=0 with symmetry is DISCOURAGED, use correct ibrav instead

     R & G space division:  proc/nbgrp/npool/nimage =       6
     Subspace diagonalization in iterative solution of the eigenvalue problem:
     a serial algorithm will be used


     Parallelization info
     --------------------
     sticks:   dense  smooth     PW     G-vecs:    dense   smooth      PW
     Min        1728     862    231               189236    66876    9315
     Max        1729     863    232               189241    66879    9320
     Sum       10373    5173   1391              1135441   401265   55907

     Using Slab Decomposition



     bravais-lattice index     =            0
     lattice parameter (alat)  =      16.2074  a.u.
     unit-cell volume          =    6392.8915 (a.u.)^3
     number of atoms/cell      =           20
     number of atomic types    =            3
     number of electrons       =       176.00
     number of Kohn-Sham states=           88
     kinetic-energy cutoff     =      60.0000  Ry
     charge density cutoff     =     480.0000  Ry
     scf convergence threshold =      1.0E-07
     mixing beta               =       0.5000
     number of iterations used =            8  plain     mixing
     Exchange-correlation= SLA  PW   PSX  PSC
                           (   1   4  10   8   0   0   0)

     celldm(1)=  16.207425  celldm(2)=   0.000000  celldm(3)=   0.000000
     celldm(4)=   0.000000  celldm(5)=   0.000000  celldm(6)=   0.000000

     crystal axes: (cart. coord. in units of alat)
               a(1) = (   1.000000   0.000000   0.000000 )  
               a(2) = (   0.000000   1.032589   0.000000 )  
               a(3) = (   0.000000   0.000000   1.454213 )  

     reciprocal axes: (cart. coord. in units 2 pi/alat)
               b(1) = (  1.000000  0.000000  0.000000 )  
               b(2) = (  0.000000  0.968440  0.000000 )  
               b(3) = (  0.000000  0.000000  0.687657 )  


     PseudoPot. # 1 for Cs read from file:
     /home/duydao/pseudo_pbesol/cs_pbesol_v1.uspp.F.UPF
     MD5 check sum: ae4559e5c840913b791237f814e2d884
     Pseudo is Ultrasoft + core correction, Zval =  9.0
     Generated by new atomic code, or converted to UPF format
     Using radial grid of  905 points,  6 beta functions with: 
                l(1) =   0
                l(2) =   0
                l(3) =   1
                l(4) =   1
                l(5) =   2
                l(6) =   2
     Q(r) pseudized with  6 coefficients,  rinner =    1.500   1.500   1.500
                                                       1.500   1.500

     PseudoPot. # 2 for Pb read from file:
     /home/duydao/pseudo_pbesol/Pb.pbesol-dn-kjpaw_psl.0.2.2.UPF
     MD5 check sum: df0e0ac60519e244e20a4bf230ae894d
     Pseudo is Projector augmented-wave + core cor, Zval = 14.0
     Generated using "atomic" code by A. Dal Corso  v.6.0 svn rev. 13079
     Shape of augmentation charge: PSQ
     Using radial grid of 1281 points,  6 beta functions with: 
                l(1) =   0
                l(2) =   0
                l(3) =   1
                l(4) =   1
                l(5) =   2
                l(6) =   2
     Q(r) pseudized with 0 coefficients 


     PseudoPot. # 3 for I  read from file:
     /home/duydao/pseudo_pbesol/I.pbesol-n-kjpaw_psl.0.2.UPF
     MD5 check sum: cecf1a22a184a0b1ae701638a037a48d
     Pseudo is Projector augmented-wave + core cor, Zval =  7.0
     Generated using "atomic" code by A. Dal Corso  v.6.0 svn rev. 13079
     Shape of augmentation charge: PSQ
     Using radial grid of 1247 points,  4 beta functions with: 
                l(1) =   0
                l(2) =   0
                l(3) =   1
                l(4) =   1
     Q(r) pseudized with 0 coefficients 


     atomic species   valence    mass     pseudopotential
     Cs                9.00   132.90500     Cs( 1.00)
     Pb               14.00   207.20000     Pb( 1.00)
     I                 7.00   126.90400     I ( 1.00)

      8 Sym. Ops., with inversion, found ( 6 have fractional translation)



   Cartesian axes

     site n.     atom                  positions (alat units)
         1        Cs     tau(   1) = (   0.5050900   0.4749392   0.3635532  )
         2        Cs     tau(   2) = (   0.4949100   0.5576495   1.0906595  )
         3        Cs     tau(   3) = (   0.0050900   0.0413552   1.0906595  )
         4        Cs     tau(   4) = (   0.9949100   0.9912335   0.3635532  )
         5        Pb     tau(   5) = (   0.5000000   0.0000000   0.0000000  )
         6        Pb     tau(   6) = (   0.5000000   0.0000000   0.7271063  )
         7        Pb     tau(   7) = (   0.0000000   0.5162943   0.0000000  )
         8        Pb     tau(   8) = (   0.0000000   0.5162943   0.7271063  )
         9        I      tau(   9) = (   0.5620200   0.0011668   0.3635532  )
        10        I      tau(  10) = (   0.4379800   1.0314218   1.0906595  )
        11        I      tau(  11) = (   0.0620200   0.5151275   1.0906595  )
        12        I      tau(  12) = (   0.9379800   0.5174612   0.3635532  )
        13        I      tau(  13) = (   0.6973100   0.3153319   1.4021954  )
        14        I      tau(  14) = (   0.3026900   0.7172567   0.6750891  )
        15        I      tau(  15) = (   0.1973100   0.2009624   0.0520172  )
        16        I      tau(  16) = (   0.8026900   0.8316263   0.7791235  )
        17        I      tau(  17) = (   0.3026900   0.7172567   0.0520172  )
        18        I      tau(  18) = (   0.6973100   0.3153319   0.7791235  )
        19        I      tau(  19) = (   0.8026900   0.8316263   1.4021954  )
        20        I      tau(  20) = (   0.1973100   0.2009624   0.6750891  )

     number of k points=    18
                       cart. coord. in units 2pi/alat
        k(    1) = (   0.0000000   0.0000000   0.0000000), wk =   0.0416667
        k(    2) = (   0.0000000   0.0000000   0.2292191), wk =   0.0833333
        k(    3) = (   0.0000000   0.2421100   0.0000000), wk =   0.0833333
        k(    4) = (   0.0000000   0.2421100   0.2292191), wk =   0.1666667
        k(    5) = (   0.0000000  -0.4842199   0.0000000), wk =   0.0416667
        k(    6) = (   0.0000000  -0.4842199   0.2292191), wk =   0.0833333
        k(    7) = (   0.2500000   0.0000000   0.0000000), wk =   0.0833333
        k(    8) = (   0.2500000   0.0000000   0.2292191), wk =   0.1666667
        k(    9) = (   0.2500000   0.2421100   0.0000000), wk =   0.1666667
        k(   10) = (   0.2500000   0.2421100   0.2292191), wk =   0.3333333
        k(   11) = (   0.2500000  -0.4842199   0.0000000), wk =   0.0833333
        k(   12) = (   0.2500000  -0.4842199   0.2292191), wk =   0.1666667
        k(   13) = (  -0.5000000   0.0000000   0.0000000), wk =   0.0416667
        k(   14) = (  -0.5000000   0.0000000   0.2292191), wk =   0.0833333
        k(   15) = (  -0.5000000   0.2421100   0.0000000), wk =   0.0833333
        k(   16) = (  -0.5000000   0.2421100   0.2292191), wk =   0.1666667
        k(   17) = (  -0.5000000  -0.4842199   0.0000000), wk =   0.0416667
        k(   18) = (  -0.5000000  -0.4842199   0.2292191), wk =   0.0833333

     Dense  grid:  1135441 G-vectors     FFT dimensions: ( 120, 120, 180)

     Smooth grid:   401265 G-vectors     FFT dimensions: (  80,  90, 120)

     Estimated max dynamical RAM per process >    1004.96 MB

     Estimated total dynamical RAM >       5.89 GB

     Initial potential from superposition of free atoms

     starting charge     175.8397, renormalised to     176.0000
     Starting wfcs are  136 randomized atomic wfcs
     Checking if some PAW data can be deallocated... 

     total cpu time spent up to now is      109.1 secs

     Self-consistent Calculation

     iteration #  1     ecut=    60.00 Ry     beta= 0.50
     Davidson diagonalization with overlap
     ethr =  1.00E-02,  avg # of iterations =  1.7

     Threshold (ethr) on eigenvalues was too large:
     Diagonalizing with lowered threshold

     Davidson diagonalization with overlap
     ethr =  2.28E-04,  avg # of iterations =  5.1

     total cpu time spent up to now is      513.5 secs

     total energy              =   -8165.74054544 Ry
     estimated scf accuracy    <       0.35058841 Ry

     iteration #  2     ecut=    60.00 Ry     beta= 0.50
     Davidson diagonalization with overlap
     ethr =  1.99E-04,  avg # of iterations =  3.2

     total cpu time spent up to now is      748.2 secs

     total energy              =   -8165.83564654 Ry
     estimated scf accuracy    <       0.01439646 Ry

     iteration #  3     ecut=    60.00 Ry     beta= 0.50
     Davidson diagonalization with overlap
     ethr =  8.18E-06,  avg # of iterations =  4.9

     total cpu time spent up to now is     1061.8 secs

     total energy              =   -8165.84616478 Ry
     estimated scf accuracy    <       0.00532946 Ry

     iteration #  4     ecut=    60.00 Ry     beta= 0.50
     Davidson diagonalization with overlap
     ethr =  3.03E-06,  avg # of iterations =  2.9

     total cpu time spent up to now is     1307.4 secs

     total energy              =   -8165.84728496 Ry
     estimated scf accuracy    <       0.00061414 Ry

     iteration #  5     ecut=    60.00 Ry     beta= 0.50
     Davidson diagonalization with overlap
     ethr =  3.49E-07,  avg # of iterations =  4.4

     total cpu time spent up to now is     1592.4 secs

     total energy              =   -8165.84740954 Ry
     estimated scf accuracy    <       0.00030255 Ry

     iteration #  6     ecut=    60.00 Ry     beta= 0.50
     Davidson diagonalization with overlap
     ethr =  1.72E-07,  avg # of iterations =  1.9

     total cpu time spent up to now is     1782.7 secs

     total energy              =   -8165.84737293 Ry
     estimated scf accuracy    <       0.00014636 Ry

     iteration #  7     ecut=    60.00 Ry     beta= 0.50
     Davidson diagonalization with overlap
     ethr =  8.32E-08,  avg # of iterations =  4.0

     total cpu time spent up to now is     2072.5 secs

     total energy              =   -8165.84741859 Ry
     estimated scf accuracy    <       0.00003069 Ry

     iteration #  8     ecut=    60.00 Ry     beta= 0.50
     Davidson diagonalization with overlap
     ethr =  1.74E-08,  avg # of iterations =  2.6

     total cpu time spent up to now is     2271.1 secs

     total energy              =   -8165.84741437 Ry
     estimated scf accuracy    <       0.00001535 Ry

     iteration #  9     ecut=    60.00 Ry     beta= 0.50
     Davidson diagonalization with overlap
     ethr =  8.72E-09,  avg # of iterations =  4.1

     total cpu time spent up to now is     2556.7 secs

     total energy              =   -8165.84741878 Ry
     estimated scf accuracy    <       0.00000562 Ry

     iteration # 10     ecut=    60.00 Ry     beta= 0.50
     Davidson diagonalization with overlap
     ethr =  3.19E-09,  avg # of iterations =  2.1

     total cpu time spent up to now is     2744.7 secs

     total energy              =   -8165.84741837 Ry
     estimated scf accuracy    <       0.00000200 Ry

     iteration # 11     ecut=    60.00 Ry     beta= 0.50
     Davidson diagonalization with overlap
     ethr =  1.14E-09,  avg # of iterations =  4.4

     total cpu time spent up to now is     3018.6 secs

     End of self-consistent calculation

          k = 0.0000 0.0000 0.0000 ( 50101 PWs)   bands (ev):

   -17.5557 -17.5551 -17.5545 -17.5539 -13.2704 -13.2639 -13.2602 -13.2601
   -13.2560 -13.2491 -13.2401 -13.2401 -13.2112 -13.2111 -13.2106 -13.2106
   -13.2055 -13.2053 -13.2050 -13.2048 -13.2009 -13.2006 -13.2004 -13.2002
    -8.9434  -8.7243  -8.5284  -8.4758  -8.4662  -8.4052  -8.4012  -8.3899
    -8.3851  -8.2157  -8.1873  -8.1842  -5.1572  -4.6285  -4.4026  -4.4002
    -4.3927  -4.3811  -4.3795  -4.3774  -4.3712  -4.3708  -4.3707  -4.3614
    -4.3437  -4.3402  -4.1180  -3.6232  -0.2153  -0.1283  -0.1049  -0.0248
     0.0256   0.0386   0.9982   1.2376   1.2497   1.2552   1.2667   1.3833
     1.5646   1.7355   1.7626   1.7715   1.8226   1.8257   1.8783   1.9290
     1.9307   1.9311   1.9878   2.0181   2.0358   2.1580   2.2282   2.2446
     2.2505   2.2528   2.3323   2.4048   2.5008   2.5548   2.8152   3.2822

          k = 0.0000 0.0000 0.2292 ( 50146 PWs)   bands (ev):

   -17.5556 -17.5552 -17.5543 -17.5541 -13.2668 -13.2607 -13.2602 -13.2597
   -13.2596 -13.2527 -13.2401 -13.2401 -13.2110 -13.2110 -13.2108 -13.2107
   -13.2055 -13.2054 -13.2049 -13.2048 -13.2008 -13.2007 -13.2003 -13.2002
    -8.9062  -8.8068  -8.5133  -8.4820  -8.4024  -8.3988  -8.3944  -8.3893
    -8.3811  -8.2628  -8.1862  -8.1847  -5.0338  -4.7677  -4.4001  -4.3965
    -4.3936  -4.3786  -4.3753  -4.3700  -4.3668  -4.3653  -4.3635  -4.3606
    -4.3581  -4.3528  -4.0340  -3.7861  -0.1019  -0.0811  -0.0452  -0.0412
     0.2207   0.4197   0.9712   1.0526   1.1654   1.2680   1.2861   1.3102
     1.4017   1.4564   1.6935   1.7813   1.7910   1.8533   1.9034   1.9251
     1.9807   1.9913   1.9949   2.0033   2.0692   2.1378   2.1585   2.1743
     2.2287   2.2299   2.3069   2.3271   2.4626   2.4654   2.8442   2.9889

          k = 0.0000 0.2421 0.0000 ( 50135 PWs)   bands (ev):

   -17.5555 -17.5549 -17.5547 -17.5541 -13.2694 -13.2648 -13.2573 -13.2573
   -13.2550 -13.2500 -13.2431 -13.2431 -13.2112 -13.2111 -13.2106 -13.2106
   -13.2055 -13.2053 -13.2051 -13.2048 -13.2009 -13.2006 -13.2005 -13.2003
    -8.9038  -8.6820  -8.6423  -8.4748  -8.4661  -8.4474  -8.3709  -8.3565
    -8.3295  -8.2249  -8.2171  -8.2162  -5.0258  -4.5326  -4.4384  -4.4026
    -4.3930  -4.3876  -4.3777  -4.3725  -4.3675  -4.3670  -4.3636  -4.3613
    -4.3471  -4.3111  -4.2383  -3.7928  -0.1764  -0.0187   0.0417   0.1566
     0.1747   0.2643   1.0530   1.1464   1.1494   1.2228   1.2997   1.3003
     1.4025   1.4026   1.5945   1.6410   1.8394   1.8545   1.8627   1.9026
     1.9476   1.9969   2.0046   2.0144   2.0157   2.0746   2.1455   2.1553
     2.2268   2.2336   2.3430   2.3480   2.5046   2.5460   2.5856   2.9664

          k = 0.0000 0.2421 0.2292 ( 50149 PWs)   bands (ev):

   -17.5554 -17.5551 -17.5545 -17.5542 -13.2658 -13.2612 -13.2586 -13.2574
   -13.2572 -13.2537 -13.2431 -13.2431 -13.2110 -13.2110 -13.2108 -13.2107
   -13.2054 -13.2053 -13.2050 -13.2049 -13.2008 -13.2007 -13.2004 -13.2003
    -8.8669  -8.7678  -8.6156  -8.5451  -8.3831  -8.3830  -8.3664  -8.3599
    -8.3417  -8.2684  -8.2173  -8.2166  -4.9077  -4.6547  -4.4044  -4.3971
    -4.3884  -4.3806  -4.3781  -4.3754  -4.3657  -4.3656  -4.3580  -4.3576
    -4.3554  -4.3434  -4.1793  -3.9486   0.0712   0.1094   0.1340   0.2069
     0.3080   0.3708   0.9919   1.0865   1.1406   1.1599   1.1898   1.2626
     1.3474   1.4119   1.4710   1.6278   1.6671   1.7743   1.7823   1.8739
     1.8840   1.9526   1.9876   2.0067   2.1212   2.1320   2.1788   2.1837
     2.2090   2.2255   2.3034   2.3111   2.4748   2.4798   2.5630   2.6836

          k = 0.0000-0.4842 0.0000 ( 50138 PWs)   bands (ev):

   -17.5551 -17.5551 -17.5545 -17.5545 -13.2671 -13.2671 -13.2527 -13.2527
   -13.2502 -13.2502 -13.2500 -13.2500 -13.2111 -13.2111 -13.2106 -13.2106
   -13.2053 -13.2053 -13.2050 -13.2050 -13.2007 -13.2007 -13.2004 -13.2004
    -8.7939  -8.7939  -8.5720  -8.5720  -8.4712  -8.4712  -8.2969  -8.2969
    -8.2867  -8.2867  -8.2574  -8.2574  -4.7083  -4.7083  -4.4103  -4.4103
    -4.3817  -4.3817  -4.3726  -4.3726  -4.3672  -4.3672  -4.3598  -4.3598
    -4.3391  -4.3391  -4.1275  -4.1275  -0.1027  -0.1027   0.4828   0.4828
     0.6500   0.6500   0.7575   0.7575   0.9165   0.9165   1.1721   1.1721
     1.4290   1.4290   1.5967   1.5967   1.6924   1.6924   1.8871   1.8871
     1.9304   1.9304   2.0017   2.0017   2.0321   2.0321   2.1669   2.1669
     2.1848   2.1848   2.3001   2.3001   2.4324   2.4324   2.6739   2.6739

          k = 0.0000-0.4842 0.2292 ( 50138 PWs)   bands (ev):

   -17.5549 -17.5549 -17.5546 -17.5546 -13.2635 -13.2635 -13.2562 -13.2562
   -13.2502 -13.2502 -13.2502 -13.2502 -13.2110 -13.2110 -13.2107 -13.2107
   -13.2052 -13.2052 -13.2051 -13.2051 -13.2006 -13.2006 -13.2005 -13.2005
    -8.7594  -8.7594  -8.6656  -8.6656  -8.3796  -8.3796  -8.2951  -8.2951
    -8.2899  -8.2899  -8.2883  -8.2883  -4.6017  -4.6017  -4.4282  -4.4282
    -4.3837  -4.3837  -4.3786  -4.3786  -4.3677  -4.3677  -4.3591  -4.3591
    -4.3354  -4.3354  -4.2517  -4.2517   0.2609   0.2609   0.5194   0.5194
     0.5943   0.5943   0.8113   0.8113   0.8285   0.8285   1.0684   1.0684
     1.5043   1.5043   1.5757   1.5757   1.6564   1.6564   1.7331   1.7331
     1.7819   1.7819   1.8141   1.8141   2.1655   2.1655   2.2150   2.2150
     2.2392   2.2392   2.2801   2.2801   2.4319   2.4319   2.4793   2.4793

          k = 0.2500 0.0000 0.0000 ( 50162 PWs)   bands (ev):

   -17.5555 -17.5549 -17.5546 -17.5541 -13.2694 -13.2648 -13.2573 -13.2573
   -13.2550 -13.2500 -13.2431 -13.2431 -13.2112 -13.2111 -13.2106 -13.2106
   -13.2055 -13.2053 -13.2051 -13.2049 -13.2008 -13.2006 -13.2005 -13.2003
    -8.9046  -8.6811  -8.6434  -8.4755  -8.4679  -8.4426  -8.3770  -8.3610
    -8.3244  -8.2219  -8.2177  -8.2163  -5.0266  -4.5390  -4.4327  -4.3942
    -4.3923  -4.3862  -4.3857  -4.3805  -4.3728  -4.3687  -4.3578  -4.3559
    -4.3550  -4.2928  -4.2355  -3.7921  -0.1804  -0.0202   0.0541   0.1437
     0.1892   0.2646   1.0085   1.0540   1.1695   1.2096   1.3002   1.3003
     1.3379   1.4641   1.6237   1.7107   1.8231   1.8585   1.8785   1.9039
     1.9535   2.0333   2.0477   2.0486   2.0493   2.0669   2.0767   2.1974
     2.2349   2.2543   2.3644   2.3662   2.4308   2.5215   2.5622   2.9024

          k = 0.2500 0.0000 0.2292 ( 50184 PWs)   bands (ev):

   -17.5554 -17.5551 -17.5545 -17.5542 -13.2658 -13.2612 -13.2586 -13.2574
   -13.2572 -13.2537 -13.2431 -13.2431 -13.2110 -13.2110 -13.2108 -13.2107
   -13.2054 -13.2053 -13.2050 -13.2049 -13.2008 -13.2007 -13.2004 -13.2003
    -8.8676  -8.7678  -8.6160  -8.5447  -8.3862  -8.3831  -8.3718  -8.3623
    -8.3356  -8.2652  -8.2169  -8.2162  -4.9098  -4.6603  -4.4058  -4.3935
    -4.3894  -4.3865  -4.3729  -4.3696  -4.3685  -4.3648  -4.3598  -4.3596
    -4.3530  -4.3303  -4.1775  -3.9474   0.0823   0.0936   0.1506   0.2155
     0.2923   0.3665   0.9674   1.0293   1.0820   1.1797   1.1913   1.2050
     1.4081   1.4236   1.4700   1.5814   1.7512   1.7578   1.8690   1.8752
     1.9566   1.9738   2.0565   2.0659   2.0790   2.1231   2.1411   2.1784
     2.2300   2.2454   2.3033   2.3336   2.4172   2.4432   2.5225   2.6003

          k = 0.2500 0.2421 0.0000 ( 50160 PWs)   bands (ev):

   -17.5554 -17.5548 -17.5547 -17.5542 -13.2693 -13.2659 -13.2577 -13.2547
   -13.2525 -13.2513 -13.2448 -13.2439 -13.2112 -13.2111 -13.2106 -13.2106
   -13.2054 -13.2052 -13.2051 -13.2049 -13.2008 -13.2005 -13.2005 -13.2003
    -8.8692  -8.6777  -8.6401  -8.4768  -8.4704  -8.4216  -8.4071  -8.4044
    -8.2913  -8.2540  -8.2515  -8.1945  -4.9229  -4.4907  -4.4813  -4.3927
    -4.3883  -4.3823  -4.3807  -4.3735  -4.3679  -4.3668  -4.3608  -4.3556
    -4.3542  -4.2852  -4.2514  -3.8831  -0.1647  -0.0683  -0.0616   0.0942
     0.5469   0.6774   0.6876   0.8967   1.0836   1.1243   1.1528   1.3711
     1.4008   1.5399   1.6417   1.7758   1.7770   1.8569   1.8736   1.9160
     1.9379   1.9542   1.9821   1.9992   2.0523   2.1026   2.1357   2.1700
     2.1809   2.1855   2.2646   2.3285   2.4473   2.5465   2.5863   2.9059

          k = 0.2500 0.2421 0.2292 ( 50192 PWs)   bands (ev):

   -17.5552 -17.5549 -17.5546 -17.5543 -13.2659 -13.2623 -13.2597 -13.2554
   -13.2545 -13.2532 -13.2447 -13.2443 -13.2110 -13.2110 -13.2108 -13.2107
   -13.2053 -13.2052 -13.2051 -13.2050 -13.2007 -13.2006 -13.2005 -13.2004
    -8.8322  -8.7318  -8.6459  -8.5608  -8.4115  -8.4071  -8.3811  -8.3414
    -8.3049  -8.2758  -8.2462  -8.2195  -4.8112  -4.5790  -4.4316  -4.3937
    -4.3851  -4.3838  -4.3753  -4.3673  -4.3658  -4.3637  -4.3596  -4.3560
    -4.3521  -4.3128  -4.2468  -4.0342  -0.0376   0.0206   0.2175   0.3355
     0.5917   0.6113   0.7521   0.8166   0.9919   1.1058   1.1476   1.2000
     1.3948   1.4784   1.5305   1.6177   1.7087   1.7493   1.7985   1.8500
     1.8895   1.9616   2.0369   2.0504   2.0981   2.1318   2.1491   2.1658
     2.2074   2.2245   2.2653   2.3116   2.4109   2.4214   2.5390   2.6315

          k = 0.2500-0.4842 0.0000 ( 50142 PWs)   bands (ev):

   -17.5551 -17.5551 -17.5545 -17.5545 -13.2680 -13.2680 -13.2557 -13.2557
   -13.2494 -13.2494 -13.2470 -13.2470 -13.2111 -13.2111 -13.2106 -13.2106
   -13.2053 -13.2053 -13.2050 -13.2050 -13.2007 -13.2007 -13.2004 -13.2004
    -8.7768  -8.7768  -8.5344  -8.5344  -8.4745  -8.4745  -8.3665  -8.3665
    -8.3319  -8.3319  -8.2077  -8.2077  -4.6867  -4.6867  -4.4055  -4.4055
    -4.3820  -4.3820  -4.3714  -4.3714  -4.3634  -4.3634  -4.3617  -4.3617
    -4.3421  -4.3421  -4.0914  -4.0914  -0.1161  -0.1161   0.1632   0.1632
     0.3403   0.3403   1.0086   1.0086   1.0840   1.0840   1.2497   1.2497
     1.4804   1.4804   1.6947   1.6947   1.7968   1.7968   1.8830   1.8830
     1.9527   1.9527   2.0024   2.0024   2.0518   2.0518   2.1150   2.1150
     2.1355   2.1355   2.2309   2.2309   2.4694   2.4694   2.7063   2.7063

          k = 0.2500-0.4842 0.2292 ( 50156 PWs)   bands (ev):

   -17.5549 -17.5549 -17.5546 -17.5546 -13.2646 -13.2646 -13.2583 -13.2583
   -13.2491 -13.2491 -13.2481 -13.2481 -13.2110 -13.2110 -13.2107 -13.2107
   -13.2052 -13.2052 -13.2051 -13.2051 -13.2006 -13.2006 -13.2005 -13.2005
    -8.7408  -8.7408  -8.6421  -8.6421  -8.3960  -8.3960  -8.3704  -8.3704
    -8.3049  -8.3049  -8.2371  -8.2371  -4.5880  -4.5880  -4.4345  -4.4345
    -4.3788  -4.3788  -4.3747  -4.3747  -4.3622  -4.3622  -4.3551  -4.3551
    -4.3333  -4.3333  -4.2177  -4.2177   0.1707   0.1707   0.2326   0.2326
     0.3535   0.3535   1.0300   1.0300   1.0537   1.0537   1.0929   1.0929
     1.4132   1.4132   1.5874   1.5874   1.7239   1.7239   1.8243   1.8243
     1.9336   1.9336   1.9570   1.9570   2.1188   2.1188   2.1503   2.1503
     2.2135   2.2135   2.2399   2.2399   2.4374   2.4374   2.4651   2.4651

          k =-0.5000 0.0000 0.0000 ( 50280 PWs)   bands (ev):

   -17.5551 -17.5551 -17.5545 -17.5545 -13.2671 -13.2671 -13.2527 -13.2527
   -13.2502 -13.2502 -13.2501 -13.2501 -13.2112 -13.2112 -13.2106 -13.2106
   -13.2053 -13.2053 -13.2051 -13.2051 -13.2007 -13.2007 -13.2004 -13.2004
    -8.7959  -8.7959  -8.5688  -8.5688  -8.4730  -8.4730  -8.3065  -8.3065
    -8.2901  -8.2901  -8.2456  -8.2456  -4.7098  -4.7098  -4.4150  -4.4150
    -4.3817  -4.3817  -4.3779  -4.3779  -4.3675  -4.3675  -4.3569  -4.3569
    -4.3293  -4.3293  -4.1171  -4.1171  -0.1070  -0.1070   0.4808   0.4808
     0.6675   0.6675   0.7314   0.7314   0.9107   0.9107   1.1104   1.1104
     1.3946   1.3946   1.6505   1.6505   1.7583   1.7583   1.9074   1.9074
     1.9086   1.9086   2.0508   2.0508   2.0592   2.0592   2.1845   2.1845
     2.2515   2.2515   2.3010   2.3010   2.3244   2.3244   2.6088   2.6088

          k =-0.5000 0.0000 0.2292 ( 50174 PWs)   bands (ev):

   -17.5550 -17.5550 -17.5546 -17.5546 -13.2635 -13.2635 -13.2562 -13.2562
   -13.2502 -13.2502 -13.2502 -13.2502 -13.2110 -13.2110 -13.2107 -13.2107
   -13.2052 -13.2052 -13.2051 -13.2051 -13.2006 -13.2006 -13.2005 -13.2005
    -8.7612  -8.7612  -8.6648  -8.6648  -8.3812  -8.3812  -8.3112  -8.3112
    -8.2923  -8.2923  -8.2689  -8.2689  -4.6080  -4.6080  -4.4415  -4.4415
    -4.3821  -4.3821  -4.3767  -4.3767  -4.3698  -4.3698  -4.3529  -4.3529
    -4.3249  -4.3249  -4.2383  -4.2383   0.2543   0.2543   0.5149   0.5149
     0.6212   0.6212   0.7393   0.7393   0.8475   0.8475   1.0102   1.0102
     1.4590   1.4590   1.6393   1.6393   1.6603   1.6603   1.7642   1.7642
     1.8710   1.8710   1.9189   1.9189   2.1566   2.1566   2.2098   2.2098
     2.2472   2.2472   2.3102   2.3102   2.3318   2.3318   2.3874   2.3874

          k =-0.5000 0.2421 0.0000 ( 50146 PWs)   bands (ev):

   -17.5551 -17.5551 -17.5545 -17.5545 -13.2680 -13.2680 -13.2557 -13.2557
   -13.2494 -13.2494 -13.2470 -13.2470 -13.2111 -13.2111 -13.2106 -13.2106
   -13.2053 -13.2053 -13.2050 -13.2050 -13.2007 -13.2007 -13.2004 -13.2004
    -8.7779  -8.7779  -8.5322  -8.5322  -8.4756  -8.4756  -8.3671  -8.3671
    -8.3343  -8.3343  -8.2057  -8.2057  -4.6874  -4.6874  -4.4095  -4.4095
    -4.3808  -4.3808  -4.3708  -4.3708  -4.3671  -4.3671  -4.3608  -4.3608
    -4.3352  -4.3352  -4.0868  -4.0868  -0.1186  -0.1186   0.1612   0.1612
     0.3455   0.3455   0.9790   0.9790   1.0735   1.0735   1.2561   1.2561
     1.4672   1.4672   1.7004   1.7004   1.8376   1.8376   1.9017   1.9017
     1.9384   1.9384   2.0377   2.0377   2.0481   2.0481   2.1052   2.1052
     2.1724   2.1724   2.2205   2.2205   2.4400   2.4400   2.6786   2.6786

          k =-0.5000 0.2421 0.2292 ( 50200 PWs)   bands (ev):

   -17.5549 -17.5549 -17.5546 -17.5546 -13.2646 -13.2646 -13.2583 -13.2583
   -13.2491 -13.2491 -13.2481 -13.2481 -13.2110 -13.2110 -13.2107 -13.2107
   -13.2052 -13.2052 -13.2051 -13.2051 -13.2006 -13.2006 -13.2005 -13.2005
    -8.7418  -8.7418  -8.6415  -8.6415  -8.3990  -8.3990  -8.3686  -8.3686
    -8.3059  -8.3059  -8.2353  -8.2353  -4.5910  -4.5910  -4.4400  -4.4400
    -4.3798  -4.3798  -4.3722  -4.3722  -4.3637  -4.3637  -4.3525  -4.3525
    -4.3271  -4.3271  -4.2119  -4.2119   0.1694   0.1694   0.2324   0.2324
     0.3506   0.3506   0.9746   0.9746   1.0687   1.0687   1.0965   1.0965
     1.4026   1.4026   1.6003   1.6003   1.7259   1.7259   1.8799   1.8799
     1.9621   1.9621   2.0235   2.0235   2.0878   2.0878   2.1380   2.1380
     2.1976   2.1976   2.2457   2.2457   2.4112   2.4112   2.4248   2.4248

          k =-0.5000-0.4842 0.0000 ( 50140 PWs)   bands (ev):

   -17.5551 -17.5551 -17.5545 -17.5545 -13.2688 -13.2688 -13.2573 -13.2573
   -13.2486 -13.2486 -13.2454 -13.2454 -13.2111 -13.2111 -13.2106 -13.2106
   -13.2053 -13.2053 -13.2050 -13.2050 -13.2007 -13.2007 -13.2004 -13.2004
    -8.7571  -8.7571  -8.4803  -8.4803  -8.4528  -8.4528  -8.4210  -8.4210
    -8.4090  -8.4090  -8.1853  -8.1853  -4.6650  -4.6650  -4.4044  -4.4044
    -4.3802  -4.3802  -4.3663  -4.3663  -4.3629  -4.3629  -4.3568  -4.3568
    -4.3477  -4.3477  -4.0577  -4.0577  -0.1351  -0.1351  -0.0162  -0.0162
     0.1842   0.1842   0.9813   0.9813   1.1640   1.1640   1.5092   1.5092
     1.5323   1.5323   1.7446   1.7446   1.7555   1.7555   1.8968   1.8968
     1.9433   1.9433   1.9889   1.9889   2.0446   2.0446   2.0514   2.0514
     2.0648   2.0648   2.3117   2.3117   2.5305   2.5305   2.7909   2.7909

          k =-0.5000-0.4842 0.2292 ( 50212 PWs)   bands (ev):

   -17.5549 -17.5549 -17.5546 -17.5546 -13.2655 -13.2655 -13.2597 -13.2597
   -13.2481 -13.2481 -13.2467 -13.2467 -13.2110 -13.2110 -13.2108 -13.2108
   -13.2052 -13.2052 -13.2051 -13.2051 -13.2006 -13.2006 -13.2005 -13.2005
    -8.7187  -8.7187  -8.6125  -8.6125  -8.4195  -8.4195  -8.4169  -8.4169
    -8.3176  -8.3176  -8.2194  -8.2194  -4.5745  -4.5745  -4.4388  -4.4388
    -4.3749  -4.3749  -4.3715  -4.3715  -4.3568  -4.3568  -4.3489  -4.3489
    -4.3303  -4.3303  -4.1862  -4.1862   0.0203   0.0203   0.0770   0.0770
     0.3102   0.3102   1.0584   1.0584   1.0595   1.0595   1.1966   1.1966
     1.4915   1.4915   1.5846   1.5846   1.8314   1.8314   1.9331   1.9331
     1.9608   1.9608   1.9621   1.9621   2.0386   2.0386   2.0396   2.0396
     2.1636   2.1636   2.2973   2.2973   2.5011   2.5011   2.5590   2.5590

     highest occupied level (ev):     3.2822

!    total energy              =   -8165.84741893 Ry
     estimated scf accuracy    <       0.00000006 Ry

     The total energy is the sum of the following terms:
     one-electron contribution =    -334.81542040 Ry
     hartree contribution      =     254.91531351 Ry
     xc contribution           =    -792.70104656 Ry
     ewald contribution        =    -643.62751295 Ry
     one-center paw contrib.   =   -6649.61875253 Ry

     convergence has been achieved in  11 iterations

     Forces acting on atoms (cartesian axes, Ry/au):

     atom    1 type  1   force =    -0.00326018   -0.00497201   -0.00000000
     atom    2 type  1   force =     0.00326018    0.00497201    0.00000000
     atom    3 type  1   force =    -0.00326018    0.00497201    0.00000000
     atom    4 type  1   force =     0.00326018   -0.00497201   -0.00000000
     atom    5 type  2   force =     0.00000000    0.00000000   -0.00000000
     atom    6 type  2   force =     0.00000000    0.00000000   -0.00000000
     atom    7 type  2   force =     0.00000000    0.00000000    0.00000000
     atom    8 type  2   force =     0.00000000    0.00000000   -0.00000000
     atom    9 type  3   force =    -0.00106364    0.00224469    0.00000000
     atom   10 type  3   force =     0.00106364   -0.00224469    0.00000000
     atom   11 type  3   force =    -0.00106364   -0.00224469   -0.00000000
     atom   12 type  3   force =     0.00106364    0.00224469    0.00000000
     atom   13 type  3   force =    -0.00365088   -0.00462708    0.00153526
     atom   14 type  3   force =     0.00365088    0.00462708    0.00153526
     atom   15 type  3   force =    -0.00365088    0.00462708   -0.00153526
     atom   16 type  3   force =     0.00365088   -0.00462708   -0.00153526
     atom   17 type  3   force =     0.00365088    0.00462708   -0.00153526
     atom   18 type  3   force =    -0.00365088   -0.00462708   -0.00153526
     atom   19 type  3   force =     0.00365088   -0.00462708    0.00153526
     atom   20 type  3   force =    -0.00365088    0.00462708    0.00153526

     Total force =     0.021514     Total SCF correction =     0.000033


     Computing stress (Cartesian axis) and pressure

          total   stress  (Ry/bohr**3)                   (kbar)     P=       -1.48
   0.00001093   0.00000000   0.00000000            1.61        0.00        0.00
   0.00000000  -0.00003367   0.00000000            0.00       -4.95        0.00
   0.00000000   0.00000000  -0.00000741            0.00        0.00       -1.09


     Writing all to output data dir ./tmp/conv_e60.save/ :
     XML data file, charge density, pseudopotentials, collected wavefunctions

     init_run     :    106.44s CPU    108.72s WALL (       1 calls)
     electrons    :   2862.41s CPU   2909.51s WALL (       1 calls)
     forces       :     56.45s CPU     57.74s WALL (       1 calls)
     stress       :    178.87s CPU    181.27s WALL (       1 calls)

     Called by init_run:
     wfcinit      :    100.03s CPU    101.21s WALL (       1 calls)
     potinit      :      1.85s CPU      1.91s WALL (       1 calls)
     hinit0       :      0.85s CPU      0.89s WALL (       1 calls)

     Called by electrons:
     c_bands      :   2536.52s CPU   2558.31s WALL (      12 calls)
     sum_band     :    276.14s CPU    291.46s WALL (      12 calls)
     v_of_rho     :      5.05s CPU      5.59s WALL (      12 calls)
     newd         :     37.36s CPU     47.68s WALL (      12 calls)
     PAW_pot      :     10.28s CPU     10.28s WALL (      12 calls)
     mix_rho      :      0.97s CPU      1.01s WALL (      12 calls)

     Called by c_bands:
     init_us_2    :     12.96s CPU     13.00s WALL (     486 calls)
     cegterg      :   2513.39s CPU   2535.05s WALL (     216 calls)

     Called by *egterg:
     cdiaghg      :     21.87s CPU     21.88s WALL (     943 calls)
     h_psi        :   1127.82s CPU   1145.29s WALL (     979 calls)
     s_psi        :    384.03s CPU    384.19s WALL (     979 calls)
     g_psi        :      4.08s CPU      4.08s WALL (     745 calls)

     Called by h_psi:
     h_psi:calbec :    394.25s CPU    394.49s WALL (     979 calls)
     vloc_psi     :    350.18s CPU    364.69s WALL (     979 calls)
     add_vuspsi   :    381.27s CPU    381.32s WALL (     979 calls)

     General routines
     calbec       :    735.06s CPU    735.42s WALL (    1501 calls)
     fft          :      5.30s CPU      5.78s WALL (     180 calls)
     ffts         :      0.47s CPU      0.49s WALL (      24 calls)
     fftw         :    363.29s CPU    378.40s WALL (  124308 calls)
     interpolate  :      0.76s CPU      0.78s WALL (      12 calls)

     Parallel routines

     PWSCF        :  53m25.26s CPU  54m19.30s WALL


   This run was terminated on:  23:24: 7   4Oct2026            

=------------------------------------------------------------------------------=
   JOB DONE.
=------------------------------------------------------------------------------=
