
     Program PWSCF v.7.6 starts on  4Oct2026 at 23:24: 7 

     This program is part of the open-source Quantum ESPRESSO suite
     for quantum simulation of materials; please cite
         "P. Giannozzi et al., J. Phys.:Condens. Matter 21 395502 (2009);
         "P. Giannozzi et al., J. Phys.:Condens. Matter 29 465901 (2017);
         "P. Giannozzi et al., J. Chem. Phys. 152 154105 (2020);
          URL http://www.quantum-espresso.org", 
     in publications or presentations arising from this work. More details at
     http://www.quantum-espresso.org/quote

     Parallel version (MPI), running on     6 processors

     MPI processes distributed on     1 nodes
     4314 MiB available memory on the printing compute node when the environment starts

     Reading input from conv/e70.in
Warning: card &CELL ignored
Warning: card   CELL_DYNAMICS  = 'BFGS' ignored
Warning: card   PRESS          = 0.0 ignored
Warning: card   PRESS_CONV_THR = 0.5 ignored
Warning: card   CELL_DOFREE    = 'ALL' ignored

     Current dimensions of program PWSCF are:
     Max number of different atomic species (ntypx) = 10
     Max number of k-points (npk) =  40000
     Max angular momentum in pseudopotentials (lmaxx) =  4
     file Pb.pbesol-dn-kjpaw_psl.0.2.2.UPF: wavefunction(s)  6S renormalized
     Message from routine setup:
     using ibrav=0 with symmetry is DISCOURAGED, use correct ibrav instead

     R & G space division:  proc/nbgrp/npool/nimage =       6
     Subspace diagonalization in iterative solution of the eigenvalue problem:
     a serial algorithm will be used


     Parallelization info
     --------------------
     sticks:   dense  smooth     PW     G-vecs:    dense   smooth      PW
     Min        2014    1007    269               238410    84279   11647
     Max        2015    1008    270               238413    84282   11650
     Sum       12085    6047   1619              1430469   505687   69895

     Using Slab Decomposition



     bravais-lattice index     =            0
     lattice parameter (alat)  =      16.2074  a.u.
     unit-cell volume          =    6392.8915 (a.u.)^3
     number of atoms/cell      =           20
     number of atomic types    =            3
     number of electrons       =       176.00
     number of Kohn-Sham states=           88
     kinetic-energy cutoff     =      70.0000  Ry
     charge density cutoff     =     560.0000  Ry
     scf convergence threshold =      1.0E-07
     mixing beta               =       0.5000
     number of iterations used =            8  plain     mixing
     Exchange-correlation= SLA  PW   PSX  PSC
                           (   1   4  10   8   0   0   0)

     celldm(1)=  16.207425  celldm(2)=   0.000000  celldm(3)=   0.000000
     celldm(4)=   0.000000  celldm(5)=   0.000000  celldm(6)=   0.000000

     crystal axes: (cart. coord. in units of alat)
               a(1) = (   1.000000   0.000000   0.000000 )  
               a(2) = (   0.000000   1.032589   0.000000 )  
               a(3) = (   0.000000   0.000000   1.454213 )  

     reciprocal axes: (cart. coord. in units 2 pi/alat)
               b(1) = (  1.000000  0.000000  0.000000 )  
               b(2) = (  0.000000  0.968440  0.000000 )  
               b(3) = (  0.000000  0.000000  0.687657 )  


     PseudoPot. # 1 for Cs read from file:
     /home/duydao/pseudo_pbesol/cs_pbesol_v1.uspp.F.UPF
     MD5 check sum: ae4559e5c840913b791237f814e2d884
     Pseudo is Ultrasoft + core correction, Zval =  9.0
     Generated by new atomic code, or converted to UPF format
     Using radial grid of  905 points,  6 beta functions with: 
                l(1) =   0
                l(2) =   0
                l(3) =   1
                l(4) =   1
                l(5) =   2
                l(6) =   2
     Q(r) pseudized with  6 coefficients,  rinner =    1.500   1.500   1.500
                                                       1.500   1.500

     PseudoPot. # 2 for Pb read from file:
     /home/duydao/pseudo_pbesol/Pb.pbesol-dn-kjpaw_psl.0.2.2.UPF
     MD5 check sum: df0e0ac60519e244e20a4bf230ae894d
     Pseudo is Projector augmented-wave + core cor, Zval = 14.0
     Generated using "atomic" code by A. Dal Corso  v.6.0 svn rev. 13079
     Shape of augmentation charge: PSQ
     Using radial grid of 1281 points,  6 beta functions with: 
                l(1) =   0
                l(2) =   0
                l(3) =   1
                l(4) =   1
                l(5) =   2
                l(6) =   2
     Q(r) pseudized with 0 coefficients 


     PseudoPot. # 3 for I  read from file:
     /home/duydao/pseudo_pbesol/I.pbesol-n-kjpaw_psl.0.2.UPF
     MD5 check sum: cecf1a22a184a0b1ae701638a037a48d
     Pseudo is Projector augmented-wave + core cor, Zval =  7.0
     Generated using "atomic" code by A. Dal Corso  v.6.0 svn rev. 13079
     Shape of augmentation charge: PSQ
     Using radial grid of 1247 points,  4 beta functions with: 
                l(1) =   0
                l(2) =   0
                l(3) =   1
                l(4) =   1
     Q(r) pseudized with 0 coefficients 


     atomic species   valence    mass     pseudopotential
     Cs                9.00   132.90500     Cs( 1.00)
     Pb               14.00   207.20000     Pb( 1.00)
     I                 7.00   126.90400     I ( 1.00)

      8 Sym. Ops., with inversion, found ( 6 have fractional translation)



   Cartesian axes

     site n.     atom                  positions (alat units)
         1        Cs     tau(   1) = (   0.5050900   0.4749392   0.3635532  )
         2        Cs     tau(   2) = (   0.4949100   0.5576495   1.0906595  )
         3        Cs     tau(   3) = (   0.0050900   0.0413552   1.0906595  )
         4        Cs     tau(   4) = (   0.9949100   0.9912335   0.3635532  )
         5        Pb     tau(   5) = (   0.5000000   0.0000000   0.0000000  )
         6        Pb     tau(   6) = (   0.5000000   0.0000000   0.7271063  )
         7        Pb     tau(   7) = (   0.0000000   0.5162943   0.0000000  )
         8        Pb     tau(   8) = (   0.0000000   0.5162943   0.7271063  )
         9        I      tau(   9) = (   0.5620200   0.0011668   0.3635532  )
        10        I      tau(  10) = (   0.4379800   1.0314218   1.0906595  )
        11        I      tau(  11) = (   0.0620200   0.5151275   1.0906595  )
        12        I      tau(  12) = (   0.9379800   0.5174612   0.3635532  )
        13        I      tau(  13) = (   0.6973100   0.3153319   1.4021954  )
        14        I      tau(  14) = (   0.3026900   0.7172567   0.6750891  )
        15        I      tau(  15) = (   0.1973100   0.2009624   0.0520172  )
        16        I      tau(  16) = (   0.8026900   0.8316263   0.7791235  )
        17        I      tau(  17) = (   0.3026900   0.7172567   0.0520172  )
        18        I      tau(  18) = (   0.6973100   0.3153319   0.7791235  )
        19        I      tau(  19) = (   0.8026900   0.8316263   1.4021954  )
        20        I      tau(  20) = (   0.1973100   0.2009624   0.6750891  )

     number of k points=    18
                       cart. coord. in units 2pi/alat
        k(    1) = (   0.0000000   0.0000000   0.0000000), wk =   0.0416667
        k(    2) = (   0.0000000   0.0000000   0.2292191), wk =   0.0833333
        k(    3) = (   0.0000000   0.2421100   0.0000000), wk =   0.0833333
        k(    4) = (   0.0000000   0.2421100   0.2292191), wk =   0.1666667
        k(    5) = (   0.0000000  -0.4842199   0.0000000), wk =   0.0416667
        k(    6) = (   0.0000000  -0.4842199   0.2292191), wk =   0.0833333
        k(    7) = (   0.2500000   0.0000000   0.0000000), wk =   0.0833333
        k(    8) = (   0.2500000   0.0000000   0.2292191), wk =   0.1666667
        k(    9) = (   0.2500000   0.2421100   0.0000000), wk =   0.1666667
        k(   10) = (   0.2500000   0.2421100   0.2292191), wk =   0.3333333
        k(   11) = (   0.2500000  -0.4842199   0.0000000), wk =   0.0833333
        k(   12) = (   0.2500000  -0.4842199   0.2292191), wk =   0.1666667
        k(   13) = (  -0.5000000   0.0000000   0.0000000), wk =   0.0416667
        k(   14) = (  -0.5000000   0.0000000   0.2292191), wk =   0.0833333
        k(   15) = (  -0.5000000   0.2421100   0.0000000), wk =   0.0833333
        k(   16) = (  -0.5000000   0.2421100   0.2292191), wk =   0.1666667
        k(   17) = (  -0.5000000  -0.4842199   0.0000000), wk =   0.0416667
        k(   18) = (  -0.5000000  -0.4842199   0.2292191), wk =   0.0833333

     Dense  grid:  1430469 G-vectors     FFT dimensions: ( 128, 128, 180)

     Smooth grid:   505687 G-vectors     FFT dimensions: (  90,  90, 128)

     Estimated max dynamical RAM per process >       1.23 GB

     Estimated total dynamical RAM >       7.39 GB

     Initial potential from superposition of free atoms

     starting charge     175.8397, renormalised to     176.0000
     Starting wfcs are  136 randomized atomic wfcs
     Checking if some PAW data can be deallocated... 

     total cpu time spent up to now is      138.0 secs

     Self-consistent Calculation

     iteration #  1     ecut=    70.00 Ry     beta= 0.50
     Davidson diagonalization with overlap
     ethr =  1.00E-02,  avg # of iterations =  1.7

     Threshold (ethr) on eigenvalues was too large:
     Diagonalizing with lowered threshold

     Davidson diagonalization with overlap
     ethr =  2.30E-04,  avg # of iterations =  5.1

     total cpu time spent up to now is      655.8 secs

     total energy              =   -8165.74064558 Ry
     estimated scf accuracy    <       0.35118278 Ry

     iteration #  2     ecut=    70.00 Ry     beta= 0.50
     Davidson diagonalization with overlap
     ethr =  2.00E-04,  avg # of iterations =  3.2

     total cpu time spent up to now is      955.0 secs

     total energy              =   -8165.83618454 Ry
     estimated scf accuracy    <       0.01441578 Ry

     iteration #  3     ecut=    70.00 Ry     beta= 0.50
     Davidson diagonalization with overlap
     ethr =  8.19E-06,  avg # of iterations =  4.9

     total cpu time spent up to now is     1359.0 secs

     total energy              =   -8165.84681792 Ry
     estimated scf accuracy    <       0.00534395 Ry

     iteration #  4     ecut=    70.00 Ry     beta= 0.50
     Davidson diagonalization with overlap
     ethr =  3.04E-06,  avg # of iterations =  2.8

     total cpu time spent up to now is     1673.7 secs

     total energy              =   -8165.84795412 Ry
     estimated scf accuracy    <       0.00061548 Ry

     iteration #  5     ecut=    70.00 Ry     beta= 0.50
     Davidson diagonalization with overlap
     ethr =  3.50E-07,  avg # of iterations =  4.4

     total cpu time spent up to now is     2036.8 secs

     total energy              =   -8165.84808643 Ry
     estimated scf accuracy    <       0.00031805 Ry

     iteration #  6     ecut=    70.00 Ry     beta= 0.50
     Davidson diagonalization with overlap
     ethr =  1.81E-07,  avg # of iterations =  1.7

     total cpu time spent up to now is     2274.7 secs

     total energy              =   -8165.84803427 Ry
     estimated scf accuracy    <       0.00017697 Ry

     iteration #  7     ecut=    70.00 Ry     beta= 0.50
     Davidson diagonalization with overlap
     ethr =  1.01E-07,  avg # of iterations =  4.0

     total cpu time spent up to now is     2640.1 secs

     total energy              =   -8165.84808643 Ry
     estimated scf accuracy    <       0.00004059 Ry

     iteration #  8     ecut=    70.00 Ry     beta= 0.50
     Davidson diagonalization with overlap
     ethr =  2.31E-08,  avg # of iterations =  2.3

     total cpu time spent up to now is     2887.7 secs

     total energy              =   -8165.84808198 Ry
     estimated scf accuracy    <       0.00001735 Ry

     iteration #  9     ecut=    70.00 Ry     beta= 0.50
     Davidson diagonalization with overlap
     ethr =  9.86E-09,  avg # of iterations =  4.2

     total cpu time spent up to now is     3243.1 secs

     total energy              =   -8165.84808720 Ry
     estimated scf accuracy    <       0.00000509 Ry

     iteration # 10     ecut=    70.00 Ry     beta= 0.50
     Davidson diagonalization with overlap
     ethr =  2.89E-09,  avg # of iterations =  2.7

     total cpu time spent up to now is     3493.8 secs

     total energy              =   -8165.84808673 Ry
     estimated scf accuracy    <       0.00000252 Ry

     iteration # 11     ecut=    70.00 Ry     beta= 0.50
     Davidson diagonalization with overlap
     ethr =  1.43E-09,  avg # of iterations =  3.9

     total cpu time spent up to now is     3792.3 secs

     End of self-consistent calculation

          k = 0.0000 0.0000 0.0000 ( 63285 PWs)   bands (ev):

   -17.5557 -17.5551 -17.5545 -17.5539 -13.2709 -13.2644 -13.2607 -13.2606
   -13.2565 -13.2496 -13.2406 -13.2406 -13.2117 -13.2116 -13.2111 -13.2111
   -13.2060 -13.2058 -13.2055 -13.2053 -13.2014 -13.2011 -13.2009 -13.2007
    -8.9434  -8.7243  -8.5285  -8.4758  -8.4663  -8.4053  -8.4012  -8.3900
    -8.3851  -8.2158  -8.1873  -8.1843  -5.1571  -4.6284  -4.4026  -4.4002
    -4.3927  -4.3811  -4.3795  -4.3774  -4.3712  -4.3707  -4.3707  -4.3614
    -4.3437  -4.3402  -4.1180  -3.6231  -0.2152  -0.1283  -0.1049  -0.0248
     0.0256   0.0386   0.9982   1.2376   1.2497   1.2552   1.2667   1.3833
     1.5646   1.7355   1.7626   1.7715   1.8226   1.8256   1.8783   1.9290
     1.9307   1.9311   1.9878   2.0181   2.0358   2.1580   2.2282   2.2446
     2.2505   2.2528   2.3323   2.4048   2.5008   2.5548   2.8152   3.2822

          k = 0.0000 0.0000 0.2292 ( 63257 PWs)   bands (ev):

   -17.5556 -17.5552 -17.5543 -17.5541 -13.2673 -13.2612 -13.2607 -13.2602
   -13.2601 -13.2533 -13.2406 -13.2406 -13.2115 -13.2115 -13.2113 -13.2112
   -13.2060 -13.2059 -13.2055 -13.2053 -13.2014 -13.2012 -13.2009 -13.2007
    -8.9062  -8.8069  -8.5134  -8.4821  -8.4024  -8.3989  -8.3945  -8.3893
    -8.3811  -8.2628  -8.1862  -8.1847  -5.0338  -4.7677  -4.4001  -4.3965
    -4.3936  -4.3786  -4.3753  -4.3700  -4.3668  -4.3653  -4.3635  -4.3606
    -4.3581  -4.3528  -4.0339  -3.7860  -0.1018  -0.0811  -0.0452  -0.0411
     0.2207   0.4197   0.9712   1.0526   1.1654   1.2680   1.2861   1.3102
     1.4017   1.4564   1.6935   1.7812   1.7910   1.8532   1.9034   1.9251
     1.9807   1.9913   1.9949   2.0033   2.0692   2.1378   2.1585   2.1743
     2.2287   2.2299   2.3069   2.3271   2.4626   2.4654   2.8442   2.9890

          k = 0.0000 0.2421 0.0000 ( 63219 PWs)   bands (ev):

   -17.5555 -17.5549 -17.5547 -17.5541 -13.2699 -13.2653 -13.2578 -13.2578
   -13.2555 -13.2505 -13.2436 -13.2436 -13.2117 -13.2116 -13.2111 -13.2111
   -13.2060 -13.2058 -13.2056 -13.2054 -13.2014 -13.2011 -13.2010 -13.2008
    -8.9038  -8.6821  -8.6424  -8.4748  -8.4662  -8.4474  -8.3710  -8.3566
    -8.3295  -8.2250  -8.2172  -8.2163  -5.0258  -4.5326  -4.4384  -4.4026
    -4.3930  -4.3876  -4.3777  -4.3725  -4.3675  -4.3670  -4.3636  -4.3613
    -4.3471  -4.3111  -4.2383  -3.7928  -0.1764  -0.0187   0.0417   0.1567
     0.1748   0.2643   1.0530   1.1464   1.1494   1.2228   1.2997   1.3002
     1.4025   1.4026   1.5945   1.6410   1.8394   1.8545   1.8627   1.9026
     1.9476   1.9969   2.0046   2.0144   2.0157   2.0746   2.1455   2.1553
     2.2268   2.2336   2.3430   2.3480   2.5046   2.5460   2.5856   2.9664

          k = 0.0000 0.2421 0.2292 ( 63257 PWs)   bands (ev):

   -17.5554 -17.5551 -17.5545 -17.5542 -13.2663 -13.2617 -13.2591 -13.2579
   -13.2577 -13.2542 -13.2436 -13.2436 -13.2115 -13.2115 -13.2113 -13.2112
   -13.2059 -13.2058 -13.2055 -13.2054 -13.2013 -13.2012 -13.2009 -13.2008
    -8.8670  -8.7679  -8.6157  -8.5452  -8.3832  -8.3831  -8.3664  -8.3600
    -8.3418  -8.2684  -8.2174  -8.2167  -4.9077  -4.6547  -4.4044  -4.3971
    -4.3884  -4.3806  -4.3781  -4.3754  -4.3657  -4.3656  -4.3580  -4.3576
    -4.3554  -4.3434  -4.1792  -3.9485   0.0712   0.1094   0.1340   0.2069
     0.3080   0.3708   0.9919   1.0865   1.1406   1.1599   1.1898   1.2626
     1.3474   1.4119   1.4710   1.6278   1.6671   1.7743   1.7823   1.8739
     1.8840   1.9526   1.9876   2.0066   2.1212   2.1320   2.1788   2.1837
     2.2090   2.2254   2.3034   2.3111   2.4748   2.4798   2.5630   2.6836

          k = 0.0000-0.4842 0.0000 ( 63280 PWs)   bands (ev):

   -17.5551 -17.5551 -17.5545 -17.5545 -13.2676 -13.2676 -13.2532 -13.2532
   -13.2507 -13.2507 -13.2505 -13.2505 -13.2117 -13.2117 -13.2111 -13.2111
   -13.2058 -13.2058 -13.2056 -13.2056 -13.2012 -13.2012 -13.2009 -13.2009
    -8.7939  -8.7939  -8.5721  -8.5721  -8.4713  -8.4713  -8.2969  -8.2969
    -8.2868  -8.2868  -8.2575  -8.2575  -4.7082  -4.7082  -4.4103  -4.4103
    -4.3817  -4.3817  -4.3726  -4.3726  -4.3672  -4.3672  -4.3598  -4.3598
    -4.3391  -4.3391  -4.1275  -4.1275  -0.1027  -0.1027   0.4828   0.4828
     0.6500   0.6500   0.7576   0.7576   0.9165   0.9165   1.1721   1.1721
     1.4290   1.4290   1.5967   1.5967   1.6924   1.6924   1.8871   1.8871
     1.9304   1.9304   2.0017   2.0017   2.0320   2.0320   2.1669   2.1669
     2.1848   2.1848   2.3001   2.3001   2.4324   2.4324   2.6739   2.6739

          k = 0.0000-0.4842 0.2292 ( 63254 PWs)   bands (ev):

   -17.5549 -17.5549 -17.5546 -17.5546 -13.2640 -13.2640 -13.2567 -13.2567
   -13.2507 -13.2507 -13.2507 -13.2507 -13.2115 -13.2115 -13.2113 -13.2113
   -13.2057 -13.2057 -13.2056 -13.2056 -13.2011 -13.2011 -13.2010 -13.2010
    -8.7595  -8.7595  -8.6657  -8.6657  -8.3796  -8.3796  -8.2952  -8.2952
    -8.2899  -8.2899  -8.2883  -8.2883  -4.6016  -4.6016  -4.4281  -4.4281
    -4.3837  -4.3837  -4.3786  -4.3786  -4.3677  -4.3677  -4.3591  -4.3591
    -4.3354  -4.3354  -4.2517  -4.2517   0.2609   0.2609   0.5194   0.5194
     0.5943   0.5943   0.8113   0.8113   0.8285   0.8285   1.0684   1.0684
     1.5043   1.5043   1.5757   1.5757   1.6564   1.6564   1.7331   1.7331
     1.7819   1.7819   1.8141   1.8141   2.1655   2.1655   2.2150   2.2150
     2.2392   2.2392   2.2801   2.2801   2.4319   2.4319   2.4793   2.4793

          k = 0.2500 0.0000 0.0000 ( 63209 PWs)   bands (ev):

   -17.5555 -17.5549 -17.5546 -17.5541 -13.2699 -13.2653 -13.2578 -13.2578
   -13.2555 -13.2505 -13.2436 -13.2436 -13.2117 -13.2116 -13.2111 -13.2111
   -13.2060 -13.2058 -13.2056 -13.2054 -13.2014 -13.2011 -13.2010 -13.2008
    -8.9047  -8.6811  -8.6435  -8.4756  -8.4680  -8.4427  -8.3770  -8.3611
    -8.3245  -8.2220  -8.2177  -8.2163  -5.0266  -4.5390  -4.4327  -4.3942
    -4.3923  -4.3862  -4.3857  -4.3805  -4.3728  -4.3687  -4.3578  -4.3559
    -4.3550  -4.2928  -4.2354  -3.7920  -0.1803  -0.0202   0.0541   0.1437
     0.1893   0.2646   1.0085   1.0540   1.1695   1.2096   1.3002   1.3003
     1.3379   1.4641   1.6237   1.7107   1.8231   1.8585   1.8785   1.9039
     1.9535   2.0333   2.0477   2.0486   2.0493   2.0669   2.0767   2.1974
     2.2349   2.2543   2.3644   2.3662   2.4308   2.5215   2.5622   2.9024

          k = 0.2500 0.0000 0.2292 ( 63228 PWs)   bands (ev):

   -17.5554 -17.5551 -17.5545 -17.5542 -13.2663 -13.2617 -13.2591 -13.2579
   -13.2577 -13.2542 -13.2436 -13.2436 -13.2115 -13.2115 -13.2113 -13.2112
   -13.2059 -13.2058 -13.2055 -13.2054 -13.2013 -13.2012 -13.2009 -13.2008
    -8.8676  -8.7679  -8.6161  -8.5448  -8.3863  -8.3831  -8.3719  -8.3624
    -8.3357  -8.2653  -8.2170  -8.2163  -4.9098  -4.6602  -4.4058  -4.3935
    -4.3894  -4.3865  -4.3729  -4.3696  -4.3685  -4.3648  -4.3598  -4.3596
    -4.3530  -4.3303  -4.1774  -3.9474   0.0823   0.0936   0.1506   0.2155
     0.2923   0.3665   0.9674   1.0293   1.0820   1.1797   1.1913   1.2050
     1.4081   1.4236   1.4700   1.5814   1.7512   1.7578   1.8690   1.8752
     1.9566   1.9738   2.0565   2.0659   2.0790   2.1231   2.1411   2.1784
     2.2300   2.2454   2.3033   2.3336   2.4172   2.4432   2.5225   2.6003

          k = 0.2500 0.2421 0.0000 ( 63235 PWs)   bands (ev):

   -17.5554 -17.5548 -17.5547 -17.5542 -13.2698 -13.2664 -13.2582 -13.2552
   -13.2530 -13.2518 -13.2453 -13.2444 -13.2117 -13.2116 -13.2111 -13.2111
   -13.2059 -13.2057 -13.2056 -13.2054 -13.2013 -13.2011 -13.2010 -13.2008
    -8.8693  -8.6778  -8.6402  -8.4769  -8.4705  -8.4216  -8.4071  -8.4045
    -8.2914  -8.2540  -8.2516  -8.1945  -4.9229  -4.4906  -4.4812  -4.3927
    -4.3883  -4.3823  -4.3807  -4.3735  -4.3679  -4.3668  -4.3608  -4.3556
    -4.3542  -4.2852  -4.2514  -3.8831  -0.1646  -0.0683  -0.0616   0.0942
     0.5469   0.6774   0.6876   0.8967   1.0836   1.1242   1.1528   1.3711
     1.4008   1.5399   1.6417   1.7758   1.7769   1.8569   1.8736   1.9159
     1.9379   1.9542   1.9821   1.9992   2.0523   2.1026   2.1357   2.1700
     2.1808   2.1855   2.2646   2.3285   2.4473   2.5465   2.5863   2.9059

          k = 0.2500 0.2421 0.2292 ( 63215 PWs)   bands (ev):

   -17.5553 -17.5549 -17.5546 -17.5543 -13.2664 -13.2628 -13.2602 -13.2559
   -13.2550 -13.2537 -13.2452 -13.2449 -13.2115 -13.2115 -13.2113 -13.2112
   -13.2059 -13.2057 -13.2056 -13.2055 -13.2012 -13.2011 -13.2010 -13.2009
    -8.8322  -8.7319  -8.6459  -8.5609  -8.4116  -8.4072  -8.3811  -8.3415
    -8.3049  -8.2758  -8.2463  -8.2196  -4.8111  -4.5790  -4.4316  -4.3937
    -4.3851  -4.3838  -4.3753  -4.3673  -4.3658  -4.3637  -4.3596  -4.3560
    -4.3521  -4.3128  -4.2468  -4.0341  -0.0376   0.0207   0.2175   0.3355
     0.5917   0.6113   0.7521   0.8166   0.9919   1.1058   1.1476   1.2000
     1.3948   1.4784   1.5305   1.6177   1.7087   1.7493   1.7985   1.8500
     1.8895   1.9616   2.0369   2.0504   2.0981   2.1318   2.1491   2.1658
     2.2074   2.2245   2.2653   2.3116   2.4109   2.4214   2.5390   2.6315

          k = 0.2500-0.4842 0.0000 ( 63242 PWs)   bands (ev):

   -17.5551 -17.5551 -17.5545 -17.5545 -13.2685 -13.2685 -13.2562 -13.2562
   -13.2499 -13.2499 -13.2476 -13.2476 -13.2117 -13.2117 -13.2111 -13.2111
   -13.2058 -13.2058 -13.2056 -13.2056 -13.2012 -13.2012 -13.2009 -13.2009
    -8.7769  -8.7769  -8.5345  -8.5345  -8.4745  -8.4745  -8.3665  -8.3665
    -8.3320  -8.3320  -8.2078  -8.2078  -4.6867  -4.6867  -4.4055  -4.4055
    -4.3820  -4.3820  -4.3714  -4.3714  -4.3633  -4.3633  -4.3617  -4.3617
    -4.3421  -4.3421  -4.0913  -4.0913  -0.1161  -0.1161   0.1633   0.1633
     0.3404   0.3404   1.0086   1.0086   1.0840   1.0840   1.2497   1.2497
     1.4804   1.4804   1.6947   1.6947   1.7968   1.7968   1.8830   1.8830
     1.9526   1.9526   2.0024   2.0024   2.0518   2.0518   2.1150   2.1150
     2.1354   2.1354   2.2309   2.2309   2.4694   2.4694   2.7063   2.7063

          k = 0.2500-0.4842 0.2292 ( 63250 PWs)   bands (ev):

   -17.5549 -17.5549 -17.5546 -17.5546 -13.2651 -13.2651 -13.2588 -13.2588
   -13.2496 -13.2496 -13.2486 -13.2486 -13.2115 -13.2115 -13.2113 -13.2113
   -13.2057 -13.2057 -13.2056 -13.2056 -13.2011 -13.2011 -13.2010 -13.2010
    -8.7408  -8.7408  -8.6421  -8.6421  -8.3961  -8.3961  -8.3704  -8.3704
    -8.3050  -8.3050  -8.2372  -8.2372  -4.5879  -4.5879  -4.4345  -4.4345
    -4.3788  -4.3788  -4.3747  -4.3747  -4.3622  -4.3622  -4.3551  -4.3551
    -4.3333  -4.3333  -4.2177  -4.2177   0.1707   0.1707   0.2327   0.2327
     0.3535   0.3535   1.0300   1.0300   1.0537   1.0537   1.0929   1.0929
     1.4132   1.4132   1.5874   1.5874   1.7239   1.7239   1.8243   1.8243
     1.9336   1.9336   1.9570   1.9570   2.1188   2.1188   2.1503   2.1503
     2.2135   2.2135   2.2399   2.2399   2.4374   2.4374   2.4651   2.4651

          k =-0.5000 0.0000 0.0000 ( 63260 PWs)   bands (ev):

   -17.5551 -17.5551 -17.5545 -17.5545 -13.2676 -13.2676 -13.2532 -13.2532
   -13.2507 -13.2507 -13.2506 -13.2506 -13.2117 -13.2117 -13.2111 -13.2111
   -13.2058 -13.2058 -13.2056 -13.2056 -13.2012 -13.2012 -13.2009 -13.2009
    -8.7959  -8.7959  -8.5689  -8.5689  -8.4731  -8.4731  -8.3066  -8.3066
    -8.2902  -8.2902  -8.2456  -8.2456  -4.7097  -4.7097  -4.4150  -4.4150
    -4.3817  -4.3817  -4.3779  -4.3779  -4.3675  -4.3675  -4.3569  -4.3569
    -4.3293  -4.3293  -4.1170  -4.1170  -0.1070  -0.1070   0.4808   0.4808
     0.6675   0.6675   0.7314   0.7314   0.9107   0.9107   1.1104   1.1104
     1.3946   1.3946   1.6504   1.6504   1.7583   1.7583   1.9074   1.9074
     1.9086   1.9086   2.0508   2.0508   2.0592   2.0592   2.1845   2.1845
     2.2515   2.2515   2.3010   2.3010   2.3244   2.3244   2.6088   2.6088

          k =-0.5000 0.0000 0.2292 ( 63174 PWs)   bands (ev):

   -17.5550 -17.5550 -17.5546 -17.5546 -13.2640 -13.2640 -13.2567 -13.2567
   -13.2507 -13.2507 -13.2507 -13.2507 -13.2115 -13.2115 -13.2112 -13.2112
   -13.2057 -13.2057 -13.2056 -13.2056 -13.2011 -13.2011 -13.2010 -13.2010
    -8.7613  -8.7613  -8.6648  -8.6648  -8.3813  -8.3813  -8.3113  -8.3113
    -8.2923  -8.2923  -8.2690  -8.2690  -4.6079  -4.6079  -4.4415  -4.4415
    -4.3821  -4.3821  -4.3767  -4.3767  -4.3698  -4.3698  -4.3529  -4.3529
    -4.3249  -4.3249  -4.2383  -4.2383   0.2543   0.2543   0.5149   0.5149
     0.6212   0.6212   0.7393   0.7393   0.8475   0.8475   1.0102   1.0102
     1.4590   1.4590   1.6393   1.6393   1.6603   1.6603   1.7642   1.7642
     1.8710   1.8710   1.9189   1.9189   2.1566   2.1566   2.2098   2.2098
     2.2472   2.2472   2.3102   2.3102   2.3318   2.3318   2.3874   2.3874

          k =-0.5000 0.2421 0.0000 ( 63234 PWs)   bands (ev):

   -17.5551 -17.5551 -17.5545 -17.5545 -13.2685 -13.2685 -13.2562 -13.2562
   -13.2499 -13.2499 -13.2476 -13.2476 -13.2117 -13.2117 -13.2111 -13.2111
   -13.2058 -13.2058 -13.2056 -13.2056 -13.2012 -13.2012 -13.2009 -13.2009
    -8.7780  -8.7780  -8.5322  -8.5322  -8.4756  -8.4756  -8.3672  -8.3672
    -8.3343  -8.3343  -8.2058  -8.2058  -4.6873  -4.6873  -4.4095  -4.4095
    -4.3808  -4.3808  -4.3708  -4.3708  -4.3670  -4.3670  -4.3608  -4.3608
    -4.3352  -4.3352  -4.0868  -4.0868  -0.1186  -0.1186   0.1612   0.1612
     0.3455   0.3455   0.9790   0.9790   1.0735   1.0735   1.2561   1.2561
     1.4672   1.4672   1.7004   1.7004   1.8375   1.8375   1.9017   1.9017
     1.9384   1.9384   2.0377   2.0377   2.0481   2.0481   2.1052   2.1052
     2.1724   2.1724   2.2204   2.2204   2.4400   2.4400   2.6786   2.6786

          k =-0.5000 0.2421 0.2292 ( 63216 PWs)   bands (ev):

   -17.5549 -17.5549 -17.5546 -17.5546 -13.2651 -13.2651 -13.2588 -13.2588
   -13.2496 -13.2496 -13.2486 -13.2486 -13.2115 -13.2115 -13.2113 -13.2113
   -13.2057 -13.2057 -13.2056 -13.2056 -13.2011 -13.2011 -13.2010 -13.2010
    -8.7419  -8.7419  -8.6415  -8.6415  -8.3991  -8.3991  -8.3687  -8.3687
    -8.3060  -8.3060  -8.2354  -8.2354  -4.5910  -4.5910  -4.4400  -4.4400
    -4.3798  -4.3798  -4.3722  -4.3722  -4.3637  -4.3637  -4.3525  -4.3525
    -4.3271  -4.3271  -4.2118  -4.2118   0.1694   0.1694   0.2324   0.2324
     0.3506   0.3506   0.9746   0.9746   1.0687   1.0687   1.0965   1.0965
     1.4026   1.4026   1.6003   1.6003   1.7259   1.7259   1.8799   1.8799
     1.9621   1.9621   2.0235   2.0235   2.0878   2.0878   2.1380   2.1380
     2.1976   2.1976   2.2457   2.2457   2.4112   2.4112   2.4248   2.4248

          k =-0.5000-0.4842 0.0000 ( 63124 PWs)   bands (ev):

   -17.5551 -17.5551 -17.5545 -17.5545 -13.2693 -13.2693 -13.2578 -13.2578
   -13.2491 -13.2491 -13.2459 -13.2459 -13.2117 -13.2117 -13.2111 -13.2111
   -13.2058 -13.2058 -13.2055 -13.2055 -13.2012 -13.2012 -13.2009 -13.2009
    -8.7571  -8.7571  -8.4803  -8.4803  -8.4528  -8.4528  -8.4211  -8.4211
    -8.4091  -8.4091  -8.1853  -8.1853  -4.6650  -4.6650  -4.4043  -4.4043
    -4.3802  -4.3802  -4.3663  -4.3663  -4.3629  -4.3629  -4.3568  -4.3568
    -4.3477  -4.3477  -4.0576  -4.0576  -0.1351  -0.1351  -0.0162  -0.0162
     0.1842   0.1842   0.9813   0.9813   1.1640   1.1640   1.5092   1.5092
     1.5323   1.5323   1.7446   1.7446   1.7555   1.7555   1.8968   1.8968
     1.9433   1.9433   1.9889   1.9889   2.0446   2.0446   2.0514   2.0514
     2.0648   2.0648   2.3117   2.3117   2.5305   2.5305   2.7909   2.7909

          k =-0.5000-0.4842 0.2292 ( 63188 PWs)   bands (ev):

   -17.5549 -17.5549 -17.5546 -17.5546 -13.2660 -13.2660 -13.2602 -13.2602
   -13.2486 -13.2486 -13.2472 -13.2472 -13.2115 -13.2115 -13.2113 -13.2113
   -13.2057 -13.2057 -13.2056 -13.2056 -13.2011 -13.2011 -13.2010 -13.2010
    -8.7188  -8.7188  -8.6126  -8.6126  -8.4196  -8.4196  -8.4169  -8.4169
    -8.3177  -8.3177  -8.2195  -8.2195  -4.5745  -4.5745  -4.4388  -4.4388
    -4.3749  -4.3749  -4.3715  -4.3715  -4.3568  -4.3568  -4.3489  -4.3489
    -4.3303  -4.3303  -4.1861  -4.1861   0.0203   0.0203   0.0771   0.0771
     0.3102   0.3102   1.0584   1.0584   1.0595   1.0595   1.1966   1.1966
     1.4915   1.4915   1.5846   1.5846   1.8314   1.8314   1.9331   1.9331
     1.9608   1.9608   1.9621   1.9621   2.0386   2.0386   2.0396   2.0396
     2.1636   2.1636   2.2973   2.2973   2.5011   2.5011   2.5590   2.5590

     highest occupied level (ev):     3.2822

!    total energy              =   -8165.84808710 Ry
     estimated scf accuracy    <       0.00000006 Ry

     The total energy is the sum of the following terms:
     one-electron contribution =    -334.81297345 Ry
     hartree contribution      =     254.90748455 Ry
     xc contribution           =    -792.69873711 Ry
     ewald contribution        =    -643.62751295 Ry
     one-center paw contrib.   =   -6649.61634812 Ry

     convergence has been achieved in  11 iterations

     Forces acting on atoms (cartesian axes, Ry/au):

     atom    1 type  1   force =    -0.00325820   -0.00497009   -0.00000000
     atom    2 type  1   force =     0.00325820    0.00497009    0.00000000
     atom    3 type  1   force =    -0.00325820    0.00497009    0.00000000
     atom    4 type  1   force =     0.00325820   -0.00497009   -0.00000000
     atom    5 type  2   force =    -0.00000000    0.00000000   -0.00000000
     atom    6 type  2   force =     0.00000000   -0.00000000    0.00000000
     atom    7 type  2   force =    -0.00000000   -0.00000000    0.00000000
     atom    8 type  2   force =     0.00000000    0.00000000    0.00000000
     atom    9 type  3   force =    -0.00106458    0.00224321    0.00000000
     atom   10 type  3   force =     0.00106458   -0.00224321   -0.00000000
     atom   11 type  3   force =    -0.00106458   -0.00224321    0.00000000
     atom   12 type  3   force =     0.00106458    0.00224321    0.00000000
     atom   13 type  3   force =    -0.00365162   -0.00462627    0.00153368
     atom   14 type  3   force =     0.00365162    0.00462627    0.00153368
     atom   15 type  3   force =    -0.00365162    0.00462627   -0.00153368
     atom   16 type  3   force =     0.00365162   -0.00462627   -0.00153368
     atom   17 type  3   force =     0.00365162    0.00462627   -0.00153368
     atom   18 type  3   force =    -0.00365162   -0.00462627   -0.00153368
     atom   19 type  3   force =     0.00365162   -0.00462627    0.00153368
     atom   20 type  3   force =    -0.00365162    0.00462627    0.00153368

     Total force =     0.021509     Total SCF correction =     0.000051


     Computing stress (Cartesian axis) and pressure

          total   stress  (Ry/bohr**3)                   (kbar)     P=       -1.35
   0.00001183   0.00000000   0.00000000            1.74        0.00        0.00
   0.00000000  -0.00003276   0.00000000            0.00       -4.82        0.00
   0.00000000   0.00000000  -0.00000652            0.00        0.00       -0.96


     Writing all to output data dir ./tmp/conv_e70.save/ :
     XML data file, charge density, pseudopotentials, collected wavefunctions

     init_run     :    134.69s CPU    137.68s WALL (       1 calls)
     electrons    :   3595.46s CPU   3654.45s WALL (       1 calls)
     forces       :     71.79s CPU     73.28s WALL (       1 calls)
     stress       :    228.36s CPU    232.09s WALL (       1 calls)

     Called by init_run:
     wfcinit      :    126.96s CPU    128.58s WALL (       1 calls)
     potinit      :      1.94s CPU      2.07s WALL (       1 calls)
     hinit0       :      0.73s CPU      0.77s WALL (       1 calls)

     Called by electrons:
     c_bands      :   3168.53s CPU   3195.60s WALL (      12 calls)
     sum_band     :    362.56s CPU    381.88s WALL (      12 calls)
     v_of_rho     :      6.02s CPU      6.56s WALL (      12 calls)
     newd         :     51.14s CPU     64.30s WALL (      12 calls)
     PAW_pot      :     11.00s CPU     11.01s WALL (      12 calls)
     mix_rho      :      1.26s CPU      1.30s WALL (      12 calls)

     Called by c_bands:
     init_us_2    :     16.72s CPU     16.83s WALL (     486 calls)
     cegterg      :   3140.58s CPU   3167.49s WALL (     216 calls)

     Called by *egterg:
     cdiaghg      :     21.39s CPU     21.41s WALL (     936 calls)
     h_psi        :   1439.34s CPU   1461.12s WALL (     972 calls)
     s_psi        :    465.88s CPU    466.03s WALL (     972 calls)
     g_psi        :      4.70s CPU      4.70s WALL (     738 calls)

     Called by h_psi:
     h_psi:calbec :    488.23s CPU    488.46s WALL (     972 calls)
     vloc_psi     :    481.43s CPU    499.25s WALL (     972 calls)
     add_vuspsi   :    467.18s CPU    467.24s WALL (     972 calls)

     General routines
     calbec       :    915.93s CPU    916.34s WALL (    1494 calls)
     fft          :      5.97s CPU      6.49s WALL (     180 calls)
     ffts         :      0.42s CPU      0.44s WALL (      24 calls)
     fftw         :    502.29s CPU    521.47s WALL (  122666 calls)
     interpolate  :      0.74s CPU      0.78s WALL (      12 calls)

     Parallel routines

     PWSCF        :      1h 7m CPU      1h 8m WALL


   This run was terminated on:   0:32:27   5Oct2026            

=------------------------------------------------------------------------------=
   JOB DONE.
=------------------------------------------------------------------------------=
