
     Program PWSCF v.7.6 starts on  5Oct2026 at  0:32:28 

     This program is part of the open-source Quantum ESPRESSO suite
     for quantum simulation of materials; please cite
         "P. Giannozzi et al., J. Phys.:Condens. Matter 21 395502 (2009);
         "P. Giannozzi et al., J. Phys.:Condens. Matter 29 465901 (2017);
         "P. Giannozzi et al., J. Chem. Phys. 152 154105 (2020);
          URL http://www.quantum-espresso.org", 
     in publications or presentations arising from this work. More details at
     http://www.quantum-espresso.org/quote

     Parallel version (MPI), running on     6 processors

     MPI processes distributed on     1 nodes
     5159 MiB available memory on the printing compute node when the environment starts

     Reading input from conv/e80.in
Warning: card &CELL ignored
Warning: card   CELL_DYNAMICS  = 'BFGS' ignored
Warning: card   PRESS          = 0.0 ignored
Warning: card   PRESS_CONV_THR = 0.5 ignored
Warning: card   CELL_DOFREE    = 'ALL' ignored

     Current dimensions of program PWSCF are:
     Max number of different atomic species (ntypx) = 10
     Max number of k-points (npk) =  40000
     Max angular momentum in pseudopotentials (lmaxx) =  4
     file Pb.pbesol-dn-kjpaw_psl.0.2.2.UPF: wavefunction(s)  6S renormalized
     Message from routine setup:
     using ibrav=0 with symmetry is DISCOURAGED, use correct ibrav instead

     R & G space division:  proc/nbgrp/npool/nimage =       6
     Subspace diagonalization in iterative solution of the eigenvalue problem:
     a serial algorithm will be used


     Parallelization info
     --------------------
     sticks:   dense  smooth     PW     G-vecs:    dense   smooth      PW
     Min        2302    1152    307               291330   102998   14149
     Max        2303    1153    308               291333   103001   14150
     Sum       13817    6915   1843              1747989   617993   84895

     Using Slab Decomposition



     bravais-lattice index     =            0
     lattice parameter (alat)  =      16.2074  a.u.
     unit-cell volume          =    6392.8915 (a.u.)^3
     number of atoms/cell      =           20
     number of atomic types    =            3
     number of electrons       =       176.00
     number of Kohn-Sham states=           88
     kinetic-energy cutoff     =      80.0000  Ry
     charge density cutoff     =     640.0000  Ry
     scf convergence threshold =      1.0E-07
     mixing beta               =       0.5000
     number of iterations used =            8  plain     mixing
     Exchange-correlation= SLA  PW   PSX  PSC
                           (   1   4  10   8   0   0   0)

     celldm(1)=  16.207425  celldm(2)=   0.000000  celldm(3)=   0.000000
     celldm(4)=   0.000000  celldm(5)=   0.000000  celldm(6)=   0.000000

     crystal axes: (cart. coord. in units of alat)
               a(1) = (   1.000000   0.000000   0.000000 )  
               a(2) = (   0.000000   1.032589   0.000000 )  
               a(3) = (   0.000000   0.000000   1.454213 )  

     reciprocal axes: (cart. coord. in units 2 pi/alat)
               b(1) = (  1.000000  0.000000  0.000000 )  
               b(2) = (  0.000000  0.968440  0.000000 )  
               b(3) = (  0.000000  0.000000  0.687657 )  


     PseudoPot. # 1 for Cs read from file:
     /home/duydao/pseudo_pbesol/cs_pbesol_v1.uspp.F.UPF
     MD5 check sum: ae4559e5c840913b791237f814e2d884
     Pseudo is Ultrasoft + core correction, Zval =  9.0
     Generated by new atomic code, or converted to UPF format
     Using radial grid of  905 points,  6 beta functions with: 
                l(1) =   0
                l(2) =   0
                l(3) =   1
                l(4) =   1
                l(5) =   2
                l(6) =   2
     Q(r) pseudized with  6 coefficients,  rinner =    1.500   1.500   1.500
                                                       1.500   1.500

     PseudoPot. # 2 for Pb read from file:
     /home/duydao/pseudo_pbesol/Pb.pbesol-dn-kjpaw_psl.0.2.2.UPF
     MD5 check sum: df0e0ac60519e244e20a4bf230ae894d
     Pseudo is Projector augmented-wave + core cor, Zval = 14.0
     Generated using "atomic" code by A. Dal Corso  v.6.0 svn rev. 13079
     Shape of augmentation charge: PSQ
     Using radial grid of 1281 points,  6 beta functions with: 
                l(1) =   0
                l(2) =   0
                l(3) =   1
                l(4) =   1
                l(5) =   2
                l(6) =   2
     Q(r) pseudized with 0 coefficients 


     PseudoPot. # 3 for I  read from file:
     /home/duydao/pseudo_pbesol/I.pbesol-n-kjpaw_psl.0.2.UPF
     MD5 check sum: cecf1a22a184a0b1ae701638a037a48d
     Pseudo is Projector augmented-wave + core cor, Zval =  7.0
     Generated using "atomic" code by A. Dal Corso  v.6.0 svn rev. 13079
     Shape of augmentation charge: PSQ
     Using radial grid of 1247 points,  4 beta functions with: 
                l(1) =   0
                l(2) =   0
                l(3) =   1
                l(4) =   1
     Q(r) pseudized with 0 coefficients 


     atomic species   valence    mass     pseudopotential
     Cs                9.00   132.90500     Cs( 1.00)
     Pb               14.00   207.20000     Pb( 1.00)
     I                 7.00   126.90400     I ( 1.00)

      8 Sym. Ops., with inversion, found ( 6 have fractional translation)



   Cartesian axes

     site n.     atom                  positions (alat units)
         1        Cs     tau(   1) = (   0.5050900   0.4749392   0.3635532  )
         2        Cs     tau(   2) = (   0.4949100   0.5576495   1.0906595  )
         3        Cs     tau(   3) = (   0.0050900   0.0413552   1.0906595  )
         4        Cs     tau(   4) = (   0.9949100   0.9912335   0.3635532  )
         5        Pb     tau(   5) = (   0.5000000   0.0000000   0.0000000  )
         6        Pb     tau(   6) = (   0.5000000   0.0000000   0.7271063  )
         7        Pb     tau(   7) = (   0.0000000   0.5162943   0.0000000  )
         8        Pb     tau(   8) = (   0.0000000   0.5162943   0.7271063  )
         9        I      tau(   9) = (   0.5620200   0.0011668   0.3635532  )
        10        I      tau(  10) = (   0.4379800   1.0314218   1.0906595  )
        11        I      tau(  11) = (   0.0620200   0.5151275   1.0906595  )
        12        I      tau(  12) = (   0.9379800   0.5174612   0.3635532  )
        13        I      tau(  13) = (   0.6973100   0.3153319   1.4021954  )
        14        I      tau(  14) = (   0.3026900   0.7172567   0.6750891  )
        15        I      tau(  15) = (   0.1973100   0.2009624   0.0520172  )
        16        I      tau(  16) = (   0.8026900   0.8316263   0.7791235  )
        17        I      tau(  17) = (   0.3026900   0.7172567   0.0520172  )
        18        I      tau(  18) = (   0.6973100   0.3153319   0.7791235  )
        19        I      tau(  19) = (   0.8026900   0.8316263   1.4021954  )
        20        I      tau(  20) = (   0.1973100   0.2009624   0.6750891  )

     number of k points=    18
                       cart. coord. in units 2pi/alat
        k(    1) = (   0.0000000   0.0000000   0.0000000), wk =   0.0416667
        k(    2) = (   0.0000000   0.0000000   0.2292191), wk =   0.0833333
        k(    3) = (   0.0000000   0.2421100   0.0000000), wk =   0.0833333
        k(    4) = (   0.0000000   0.2421100   0.2292191), wk =   0.1666667
        k(    5) = (   0.0000000  -0.4842199   0.0000000), wk =   0.0416667
        k(    6) = (   0.0000000  -0.4842199   0.2292191), wk =   0.0833333
        k(    7) = (   0.2500000   0.0000000   0.0000000), wk =   0.0833333
        k(    8) = (   0.2500000   0.0000000   0.2292191), wk =   0.1666667
        k(    9) = (   0.2500000   0.2421100   0.0000000), wk =   0.1666667
        k(   10) = (   0.2500000   0.2421100   0.2292191), wk =   0.3333333
        k(   11) = (   0.2500000  -0.4842199   0.0000000), wk =   0.0833333
        k(   12) = (   0.2500000  -0.4842199   0.2292191), wk =   0.1666667
        k(   13) = (  -0.5000000   0.0000000   0.0000000), wk =   0.0416667
        k(   14) = (  -0.5000000   0.0000000   0.2292191), wk =   0.0833333
        k(   15) = (  -0.5000000   0.2421100   0.0000000), wk =   0.0833333
        k(   16) = (  -0.5000000   0.2421100   0.2292191), wk =   0.1666667
        k(   17) = (  -0.5000000  -0.4842199   0.0000000), wk =   0.0416667
        k(   18) = (  -0.5000000  -0.4842199   0.2292191), wk =   0.0833333

     Dense  grid:  1747989 G-vectors     FFT dimensions: ( 144, 144, 192)

     Smooth grid:   617993 G-vectors     FFT dimensions: (  96,  96, 144)

     Estimated max dynamical RAM per process >       1.51 GB

     Estimated total dynamical RAM >       9.05 GB

     Initial potential from superposition of free atoms

     starting charge     175.8397, renormalised to     176.0000
     Starting wfcs are  136 randomized atomic wfcs
     Checking if some PAW data can be deallocated... 

     total cpu time spent up to now is      170.5 secs

     Self-consistent Calculation

     iteration #  1     ecut=    80.00 Ry     beta= 0.50
     Davidson diagonalization with overlap
     ethr =  1.00E-02,  avg # of iterations =  1.8

     Threshold (ethr) on eigenvalues was too large:
     Diagonalizing with lowered threshold

     Davidson diagonalization with overlap
     ethr =  2.31E-04,  avg # of iterations =  5.1

     total cpu time spent up to now is      831.1 secs

     total energy              =   -8165.74032438 Ry
     estimated scf accuracy    <       0.35217956 Ry

     iteration #  2     ecut=    80.00 Ry     beta= 0.50
     Davidson diagonalization with overlap
     ethr =  2.00E-04,  avg # of iterations =  3.3

     total cpu time spent up to now is     1210.5 secs

     total energy              =   -8165.83665295 Ry
     estimated scf accuracy    <       0.01450753 Ry

     iteration #  3     ecut=    80.00 Ry     beta= 0.50
     Davidson diagonalization with overlap
     ethr =  8.24E-06,  avg # of iterations =  4.9

     total cpu time spent up to now is     1713.5 secs

     total energy              =   -8165.84737707 Ry
     estimated scf accuracy    <       0.00530322 Ry

     iteration #  4     ecut=    80.00 Ry     beta= 0.50
     Davidson diagonalization with overlap
     ethr =  3.01E-06,  avg # of iterations =  2.9

     total cpu time spent up to now is     2116.9 secs

     total energy              =   -8165.84853118 Ry
     estimated scf accuracy    <       0.00061673 Ry

     iteration #  5     ecut=    80.00 Ry     beta= 0.50
     Davidson diagonalization with overlap
     ethr =  3.50E-07,  avg # of iterations =  4.3

     total cpu time spent up to now is     2574.4 secs

     total energy              =   -8165.84866854 Ry
     estimated scf accuracy    <       0.00030842 Ry

     iteration #  6     ecut=    80.00 Ry     beta= 0.50
     Davidson diagonalization with overlap
     ethr =  1.75E-07,  avg # of iterations =  1.8

     total cpu time spent up to now is     2878.6 secs

     total energy              =   -8165.84862672 Ry
     estimated scf accuracy    <       0.00016143 Ry

     iteration #  7     ecut=    80.00 Ry     beta= 0.50
     Davidson diagonalization with overlap
     ethr =  9.17E-08,  avg # of iterations =  4.0

     total cpu time spent up to now is     3343.1 secs

     total energy              =   -8165.84867604 Ry
     estimated scf accuracy    <       0.00003512 Ry

     iteration #  8     ecut=    80.00 Ry     beta= 0.50
     Davidson diagonalization with overlap
     ethr =  2.00E-08,  avg # of iterations =  2.4

     total cpu time spent up to now is     3663.2 secs

     total energy              =   -8165.84867191 Ry
     estimated scf accuracy    <       0.00001621 Ry

     iteration #  9     ecut=    80.00 Ry     beta= 0.50
     Davidson diagonalization with overlap
     ethr =  9.21E-09,  avg # of iterations =  4.1

     total cpu time spent up to now is     4125.9 secs

     total energy              =   -8165.84867677 Ry
     estimated scf accuracy    <       0.00000529 Ry

     iteration # 10     ecut=    80.00 Ry     beta= 0.50
     Davidson diagonalization with overlap
     ethr =  3.01E-09,  avg # of iterations =  2.8

     total cpu time spent up to now is     4436.9 secs

     total energy              =   -8165.84867640 Ry
     estimated scf accuracy    <       0.00000214 Ry

     iteration # 11     ecut=    80.00 Ry     beta= 0.50
     Davidson diagonalization with overlap
     ethr =  1.22E-09,  avg # of iterations =  4.6

     total cpu time spent up to now is     4864.0 secs

     End of self-consistent calculation

          k = 0.0000 0.0000 0.0000 ( 77195 PWs)   bands (ev):

   -17.5557 -17.5551 -17.5545 -17.5539 -13.2715 -13.2651 -13.2613 -13.2613
   -13.2571 -13.2502 -13.2413 -13.2412 -13.2123 -13.2123 -13.2118 -13.2117
   -13.2067 -13.2065 -13.2061 -13.2059 -13.2020 -13.2018 -13.2015 -13.2013
    -8.9434  -8.7243  -8.5285  -8.4758  -8.4663  -8.4053  -8.4012  -8.3899
    -8.3851  -8.2158  -8.1873  -8.1843  -5.1572  -4.6285  -4.4026  -4.4003
    -4.3928  -4.3811  -4.3796  -4.3774  -4.3712  -4.3708  -4.3707  -4.3615
    -4.3437  -4.3402  -4.1181  -3.6232  -0.2153  -0.1283  -0.1049  -0.0248
     0.0256   0.0386   0.9982   1.2375   1.2496   1.2551   1.2666   1.3833
     1.5646   1.7354   1.7626   1.7714   1.8226   1.8256   1.8782   1.9289
     1.9306   1.9311   1.9877   2.0180   2.0358   2.1579   2.2282   2.2445
     2.2504   2.2528   2.3323   2.4048   2.5007   2.5548   2.8151   3.2821

          k = 0.0000 0.0000 0.2292 ( 77199 PWs)   bands (ev):

   -17.5556 -17.5552 -17.5543 -17.5541 -13.2679 -13.2618 -13.2614 -13.2608
   -13.2607 -13.2539 -13.2413 -13.2412 -13.2122 -13.2121 -13.2119 -13.2119
   -13.2066 -13.2065 -13.2061 -13.2060 -13.2020 -13.2018 -13.2015 -13.2014
    -8.9062  -8.8069  -8.5134  -8.4821  -8.4024  -8.3989  -8.3945  -8.3893
    -8.3811  -8.2628  -8.1862  -8.1847  -5.0339  -4.7677  -4.4001  -4.3965
    -4.3936  -4.3786  -4.3753  -4.3700  -4.3668  -4.3653  -4.3636  -4.3606
    -4.3581  -4.3528  -4.0340  -3.7861  -0.1018  -0.0811  -0.0452  -0.0412
     0.2207   0.4196   0.9712   1.0525   1.1654   1.2679   1.2860   1.3102
     1.4017   1.4563   1.6935   1.7812   1.7909   1.8532   1.9033   1.9251
     1.9807   1.9913   1.9949   2.0032   2.0692   2.1377   2.1584   2.1743
     2.2287   2.2298   2.3069   2.3271   2.4625   2.4654   2.8441   2.9888

          k = 0.0000 0.2421 0.0000 ( 77200 PWs)   bands (ev):

   -17.5556 -17.5549 -17.5547 -17.5541 -13.2705 -13.2660 -13.2585 -13.2584
   -13.2561 -13.2512 -13.2442 -13.2442 -13.2123 -13.2123 -13.2117 -13.2117
   -13.2066 -13.2064 -13.2062 -13.2060 -13.2020 -13.2017 -13.2016 -13.2014
    -8.9038  -8.6821  -8.6424  -8.4748  -8.4662  -8.4474  -8.3710  -8.3566
    -8.3295  -8.2250  -8.2172  -8.2163  -5.0258  -4.5326  -4.4385  -4.4026
    -4.3930  -4.3876  -4.3777  -4.3725  -4.3675  -4.3670  -4.3636  -4.3613
    -4.3471  -4.3111  -4.2384  -3.7929  -0.1764  -0.0187   0.0417   0.1566
     0.1747   0.2643   1.0530   1.1464   1.1494   1.2227   1.2997   1.3002
     1.4024   1.4025   1.5944   1.6409   1.8393   1.8545   1.8626   1.9026
     1.9475   1.9969   2.0046   2.0143   2.0157   2.0746   2.1455   2.1553
     2.2268   2.2335   2.3430   2.3479   2.5045   2.5459   2.5855   2.9663

          k = 0.0000 0.2421 0.2292 ( 77242 PWs)   bands (ev):

   -17.5554 -17.5551 -17.5545 -17.5542 -13.2669 -13.2623 -13.2597 -13.2585
   -13.2583 -13.2548 -13.2442 -13.2442 -13.2122 -13.2121 -13.2119 -13.2119
   -13.2065 -13.2064 -13.2062 -13.2060 -13.2019 -13.2018 -13.2016 -13.2014
    -8.8670  -8.7679  -8.6157  -8.5452  -8.3832  -8.3831  -8.3664  -8.3600
    -8.3417  -8.2684  -8.2174  -8.2167  -4.9078  -4.6548  -4.4044  -4.3971
    -4.3884  -4.3806  -4.3781  -4.3754  -4.3657  -4.3657  -4.3581  -4.3576
    -4.3554  -4.3434  -4.1793  -3.9486   0.0712   0.1094   0.1340   0.2069
     0.3080   0.3708   0.9919   1.0865   1.1406   1.1599   1.1898   1.2626
     1.3473   1.4118   1.4709   1.6278   1.6671   1.7743   1.7822   1.8739
     1.8839   1.9525   1.9875   2.0066   2.1211   2.1320   2.1787   2.1837
     2.2089   2.2254   2.3033   2.3111   2.4747   2.4798   2.5630   2.6836

          k = 0.0000-0.4842 0.0000 ( 77296 PWs)   bands (ev):

   -17.5551 -17.5551 -17.5545 -17.5545 -13.2682 -13.2682 -13.2538 -13.2538
   -13.2513 -13.2513 -13.2512 -13.2512 -13.2123 -13.2123 -13.2117 -13.2117
   -13.2064 -13.2064 -13.2062 -13.2062 -13.2018 -13.2018 -13.2016 -13.2016
    -8.7939  -8.7939  -8.5721  -8.5721  -8.4713  -8.4713  -8.2969  -8.2969
    -8.2868  -8.2868  -8.2575  -8.2575  -4.7083  -4.7083  -4.4103  -4.4103
    -4.3817  -4.3817  -4.3726  -4.3726  -4.3673  -4.3673  -4.3599  -4.3599
    -4.3391  -4.3391  -4.1276  -4.1276  -0.1027  -0.1027   0.4827   0.4827
     0.6499   0.6499   0.7575   0.7575   0.9165   0.9165   1.1721   1.1721
     1.4290   1.4290   1.5967   1.5967   1.6923   1.6923   1.8870   1.8870
     1.9303   1.9303   2.0017   2.0017   2.0320   2.0320   2.1669   2.1669
     2.1847   2.1847   2.3001   2.3001   2.4323   2.4323   2.6738   2.6738

          k = 0.0000-0.4842 0.2292 ( 77236 PWs)   bands (ev):

   -17.5550 -17.5550 -17.5546 -17.5546 -13.2646 -13.2646 -13.2573 -13.2573
   -13.2513 -13.2513 -13.2513 -13.2513 -13.2121 -13.2121 -13.2119 -13.2119
   -13.2063 -13.2063 -13.2062 -13.2062 -13.2017 -13.2017 -13.2016 -13.2016
    -8.7594  -8.7594  -8.6656  -8.6656  -8.3796  -8.3796  -8.2952  -8.2952
    -8.2899  -8.2899  -8.2883  -8.2883  -4.6017  -4.6017  -4.4282  -4.4282
    -4.3837  -4.3837  -4.3786  -4.3786  -4.3677  -4.3677  -4.3591  -4.3591
    -4.3354  -4.3354  -4.2517  -4.2517   0.2609   0.2609   0.5193   0.5193
     0.5943   0.5943   0.8113   0.8113   0.8284   0.8284   1.0684   1.0684
     1.5043   1.5043   1.5757   1.5757   1.6564   1.6564   1.7331   1.7331
     1.7818   1.7818   1.8141   1.8141   2.1654   2.1654   2.2150   2.2150
     2.2391   2.2391   2.2800   2.2800   2.4318   2.4318   2.4793   2.4793

          k = 0.2500 0.0000 0.0000 ( 77280 PWs)   bands (ev):

   -17.5555 -17.5549 -17.5546 -17.5541 -13.2705 -13.2659 -13.2585 -13.2584
   -13.2561 -13.2512 -13.2442 -13.2442 -13.2123 -13.2123 -13.2117 -13.2117
   -13.2066 -13.2064 -13.2062 -13.2060 -13.2020 -13.2017 -13.2016 -13.2014
    -8.9046  -8.6811  -8.6435  -8.4755  -8.4680  -8.4427  -8.3770  -8.3611
    -8.3245  -8.2220  -8.2177  -8.2163  -5.0267  -4.5390  -4.4327  -4.3942
    -4.3923  -4.3862  -4.3857  -4.3805  -4.3728  -4.3687  -4.3578  -4.3559
    -4.3550  -4.2929  -4.2355  -3.7921  -0.1804  -0.0202   0.0541   0.1437
     0.1892   0.2646   1.0085   1.0539   1.1694   1.2095   1.3002   1.3003
     1.3379   1.4640   1.6237   1.7106   1.8231   1.8585   1.8784   1.9039
     1.9535   2.0333   2.0476   2.0486   2.0493   2.0668   2.0767   2.1974
     2.2348   2.2543   2.3644   2.3661   2.4307   2.5215   2.5621   2.9023

          k = 0.2500 0.0000 0.2292 ( 77274 PWs)   bands (ev):

   -17.5554 -17.5551 -17.5545 -17.5542 -13.2669 -13.2623 -13.2597 -13.2585
   -13.2583 -13.2548 -13.2442 -13.2442 -13.2122 -13.2121 -13.2119 -13.2119
   -13.2065 -13.2064 -13.2061 -13.2060 -13.2019 -13.2018 -13.2016 -13.2014
    -8.8676  -8.7679  -8.6161  -8.5448  -8.3863  -8.3831  -8.3719  -8.3624
    -8.3357  -8.2653  -8.2169  -8.2163  -4.9098  -4.6603  -4.4058  -4.3935
    -4.3894  -4.3865  -4.3729  -4.3697  -4.3685  -4.3648  -4.3598  -4.3596
    -4.3531  -4.3303  -4.1775  -3.9475   0.0823   0.0936   0.1506   0.2155
     0.2923   0.3665   0.9674   1.0292   1.0820   1.1796   1.1913   1.2050
     1.4081   1.4235   1.4700   1.5813   1.7511   1.7577   1.8689   1.8751
     1.9565   1.9737   2.0565   2.0658   2.0790   2.1231   2.1410   2.1784
     2.2299   2.2454   2.3033   2.3336   2.4171   2.4431   2.5224   2.6002

          k = 0.2500 0.2421 0.0000 ( 77280 PWs)   bands (ev):

   -17.5554 -17.5548 -17.5547 -17.5542 -13.2704 -13.2670 -13.2588 -13.2558
   -13.2536 -13.2524 -13.2459 -13.2450 -13.2123 -13.2123 -13.2117 -13.2117
   -13.2065 -13.2063 -13.2063 -13.2060 -13.2019 -13.2017 -13.2017 -13.2014
    -8.8693  -8.6777  -8.6402  -8.4769  -8.4705  -8.4216  -8.4071  -8.4044
    -8.2914  -8.2540  -8.2515  -8.1945  -4.9230  -4.4907  -4.4813  -4.3927
    -4.3883  -4.3823  -4.3807  -4.3735  -4.3679  -4.3668  -4.3608  -4.3556
    -4.3542  -4.2852  -4.2515  -3.8832  -0.1647  -0.0683  -0.0616   0.0942
     0.5469   0.6774   0.6875   0.8967   1.0836   1.1242   1.1527   1.3711
     1.4007   1.5398   1.6417   1.7757   1.7769   1.8569   1.8736   1.9159
     1.9379   1.9542   1.9821   1.9991   2.0522   2.1026   2.1356   2.1699
     2.1808   2.1854   2.2645   2.3285   2.4472   2.5465   2.5862   2.9058

          k = 0.2500 0.2421 0.2292 ( 77245 PWs)   bands (ev):

   -17.5553 -17.5549 -17.5546 -17.5543 -13.2670 -13.2634 -13.2609 -13.2566
   -13.2556 -13.2543 -13.2458 -13.2455 -13.2122 -13.2121 -13.2119 -13.2119
   -13.2065 -13.2064 -13.2062 -13.2061 -13.2019 -13.2017 -13.2016 -13.2015
    -8.8322  -8.7319  -8.6459  -8.5609  -8.4115  -8.4071  -8.3811  -8.3415
    -8.3049  -8.2758  -8.2463  -8.2196  -4.8112  -4.5790  -4.4317  -4.3937
    -4.3851  -4.3838  -4.3753  -4.3673  -4.3658  -4.3637  -4.3597  -4.3560
    -4.3521  -4.3128  -4.2468  -4.0342  -0.0376   0.0206   0.2175   0.3354
     0.5917   0.6113   0.7520   0.8166   0.9919   1.1057   1.1476   1.2000
     1.3948   1.4784   1.5304   1.6177   1.7087   1.7492   1.7985   1.8500
     1.8894   1.9616   2.0368   2.0503   2.0980   2.1318   2.1490   2.1657
     2.2074   2.2245   2.2652   2.3115   2.4108   2.4213   2.5389   2.6314

          k = 0.2500-0.4842 0.0000 ( 77276 PWs)   bands (ev):

   -17.5551 -17.5551 -17.5545 -17.5545 -13.2691 -13.2691 -13.2568 -13.2568
   -13.2505 -13.2505 -13.2482 -13.2482 -13.2123 -13.2123 -13.2117 -13.2117
   -13.2064 -13.2064 -13.2062 -13.2062 -13.2018 -13.2018 -13.2016 -13.2016
    -8.7769  -8.7769  -8.5345  -8.5345  -8.4745  -8.4745  -8.3665  -8.3665
    -8.3320  -8.3320  -8.2078  -8.2078  -4.6867  -4.6867  -4.4055  -4.4055
    -4.3820  -4.3820  -4.3714  -4.3714  -4.3634  -4.3634  -4.3618  -4.3618
    -4.3421  -4.3421  -4.0914  -4.0914  -0.1161  -0.1161   0.1632   0.1632
     0.3403   0.3403   1.0086   1.0086   1.0839   1.0839   1.2496   1.2496
     1.4803   1.4803   1.6946   1.6946   1.7967   1.7967   1.8829   1.8829
     1.9526   1.9526   2.0024   2.0024   2.0517   2.0517   2.1149   2.1149
     2.1354   2.1354   2.2308   2.2308   2.4693   2.4693   2.7062   2.7062

          k = 0.2500-0.4842 0.2292 ( 77236 PWs)   bands (ev):

   -17.5549 -17.5549 -17.5546 -17.5546 -13.2657 -13.2657 -13.2594 -13.2594
   -13.2502 -13.2502 -13.2492 -13.2492 -13.2121 -13.2121 -13.2119 -13.2119
   -13.2063 -13.2063 -13.2062 -13.2062 -13.2017 -13.2017 -13.2016 -13.2016
    -8.7408  -8.7408  -8.6421  -8.6421  -8.3961  -8.3961  -8.3704  -8.3704
    -8.3050  -8.3050  -8.2372  -8.2372  -4.5880  -4.5880  -4.4345  -4.4345
    -4.3788  -4.3788  -4.3747  -4.3747  -4.3622  -4.3622  -4.3551  -4.3551
    -4.3333  -4.3333  -4.2178  -4.2178   0.1707   0.1707   0.2326   0.2326
     0.3534   0.3534   1.0300   1.0300   1.0536   1.0536   1.0929   1.0929
     1.4132   1.4132   1.5873   1.5873   1.7239   1.7239   1.8242   1.8242
     1.9336   1.9336   1.9570   1.9570   2.1187   2.1187   2.1502   2.1502
     2.2134   2.2134   2.2398   2.2398   2.4374   2.4374   2.4651   2.4651

          k =-0.5000 0.0000 0.0000 ( 77254 PWs)   bands (ev):

   -17.5551 -17.5551 -17.5545 -17.5545 -13.2682 -13.2682 -13.2538 -13.2538
   -13.2514 -13.2514 -13.2512 -13.2512 -13.2123 -13.2123 -13.2117 -13.2117
   -13.2064 -13.2064 -13.2062 -13.2062 -13.2018 -13.2018 -13.2016 -13.2016
    -8.7959  -8.7959  -8.5689  -8.5689  -8.4730  -8.4730  -8.3066  -8.3066
    -8.2902  -8.2902  -8.2456  -8.2456  -4.7098  -4.7098  -4.4150  -4.4150
    -4.3817  -4.3817  -4.3779  -4.3779  -4.3675  -4.3675  -4.3569  -4.3569
    -4.3293  -4.3293  -4.1171  -4.1171  -0.1070  -0.1070   0.4807   0.4807
     0.6675   0.6675   0.7313   0.7313   0.9106   0.9106   1.1103   1.1103
     1.3946   1.3946   1.6504   1.6504   1.7582   1.7582   1.9073   1.9073
     1.9086   1.9086   2.0507   2.0507   2.0591   2.0591   2.1845   2.1845
     2.2514   2.2514   2.3009   2.3009   2.3243   2.3243   2.6087   2.6087

          k =-0.5000 0.0000 0.2292 ( 77324 PWs)   bands (ev):

   -17.5550 -17.5550 -17.5546 -17.5546 -13.2646 -13.2646 -13.2573 -13.2573
   -13.2513 -13.2513 -13.2513 -13.2513 -13.2121 -13.2121 -13.2119 -13.2119
   -13.2063 -13.2063 -13.2062 -13.2062 -13.2017 -13.2017 -13.2016 -13.2016
    -8.7612  -8.7612  -8.6648  -8.6648  -8.3813  -8.3813  -8.3113  -8.3113
    -8.2923  -8.2923  -8.2689  -8.2689  -4.6080  -4.6080  -4.4415  -4.4415
    -4.3821  -4.3821  -4.3767  -4.3767  -4.3698  -4.3698  -4.3529  -4.3529
    -4.3250  -4.3250  -4.2383  -4.2383   0.2543   0.2543   0.5149   0.5149
     0.6212   0.6212   0.7393   0.7393   0.8474   0.8474   1.0101   1.0101
     1.4590   1.4590   1.6392   1.6392   1.6603   1.6603   1.7642   1.7642
     1.8709   1.8709   1.9189   1.9189   2.1566   2.1566   2.2098   2.2098
     2.2472   2.2472   2.3102   2.3102   2.3318   2.3318   2.3874   2.3874

          k =-0.5000 0.2421 0.0000 ( 77272 PWs)   bands (ev):

   -17.5551 -17.5551 -17.5545 -17.5545 -13.2691 -13.2691 -13.2568 -13.2568
   -13.2505 -13.2505 -13.2482 -13.2482 -13.2123 -13.2123 -13.2117 -13.2117
   -13.2064 -13.2064 -13.2062 -13.2062 -13.2018 -13.2018 -13.2016 -13.2016
    -8.7780  -8.7780  -8.5322  -8.5322  -8.4756  -8.4756  -8.3671  -8.3671
    -8.3343  -8.3343  -8.2058  -8.2058  -4.6874  -4.6874  -4.4096  -4.4096
    -4.3809  -4.3809  -4.3708  -4.3708  -4.3671  -4.3671  -4.3608  -4.3608
    -4.3352  -4.3352  -4.0869  -4.0869  -0.1186  -0.1186   0.1612   0.1612
     0.3455   0.3455   0.9789   0.9789   1.0734   1.0734   1.2560   1.2560
     1.4671   1.4671   1.7003   1.7003   1.8375   1.8375   1.9016   1.9016
     1.9384   1.9384   2.0377   2.0377   2.0481   2.0481   2.1051   2.1051
     2.1723   2.1723   2.2204   2.2204   2.4399   2.4399   2.6785   2.6785

          k =-0.5000 0.2421 0.2292 ( 77222 PWs)   bands (ev):

   -17.5550 -17.5550 -17.5546 -17.5546 -13.2657 -13.2657 -13.2594 -13.2594
   -13.2502 -13.2502 -13.2492 -13.2492 -13.2121 -13.2121 -13.2119 -13.2119
   -13.2063 -13.2063 -13.2062 -13.2062 -13.2017 -13.2017 -13.2016 -13.2016
    -8.7418  -8.7418  -8.6415  -8.6415  -8.3991  -8.3991  -8.3686  -8.3686
    -8.3060  -8.3060  -8.2354  -8.2354  -4.5911  -4.5911  -4.4400  -4.4400
    -4.3798  -4.3798  -4.3722  -4.3722  -4.3638  -4.3638  -4.3526  -4.3526
    -4.3271  -4.3271  -4.2119  -4.2119   0.1694   0.1694   0.2324   0.2324
     0.3505   0.3505   0.9746   0.9746   1.0687   1.0687   1.0965   1.0965
     1.4026   1.4026   1.6002   1.6002   1.7258   1.7258   1.8798   1.8798
     1.9620   1.9620   2.0234   2.0234   2.0878   2.0878   2.1380   2.1380
     2.1975   2.1975   2.2456   2.2456   2.4111   2.4111   2.4247   2.4247

          k =-0.5000-0.4842 0.0000 ( 77284 PWs)   bands (ev):

   -17.5551 -17.5551 -17.5545 -17.5545 -13.2699 -13.2699 -13.2584 -13.2584
   -13.2497 -13.2497 -13.2465 -13.2465 -13.2123 -13.2123 -13.2117 -13.2117
   -13.2064 -13.2064 -13.2062 -13.2062 -13.2018 -13.2018 -13.2015 -13.2015
    -8.7571  -8.7571  -8.4803  -8.4803  -8.4528  -8.4528  -8.4211  -8.4211
    -8.4091  -8.4091  -8.1853  -8.1853  -4.6651  -4.6651  -4.4044  -4.4044
    -4.3802  -4.3802  -4.3663  -4.3663  -4.3629  -4.3629  -4.3568  -4.3568
    -4.3477  -4.3477  -4.0577  -4.0577  -0.1351  -0.1351  -0.0162  -0.0162
     0.1842   0.1842   0.9812   0.9812   1.1640   1.1640   1.5091   1.5091
     1.5323   1.5323   1.7445   1.7445   1.7554   1.7554   1.8967   1.8967
     1.9433   1.9433   1.9888   1.9888   2.0445   2.0445   2.0513   2.0513
     2.0648   2.0648   2.3116   2.3116   2.5304   2.5304   2.7908   2.7908

          k =-0.5000-0.4842 0.2292 ( 77292 PWs)   bands (ev):

   -17.5549 -17.5549 -17.5546 -17.5546 -13.2667 -13.2667 -13.2608 -13.2608
   -13.2493 -13.2493 -13.2478 -13.2478 -13.2121 -13.2121 -13.2119 -13.2119
   -13.2063 -13.2063 -13.2062 -13.2062 -13.2017 -13.2017 -13.2016 -13.2016
    -8.7187  -8.7187  -8.6125  -8.6125  -8.4195  -8.4195  -8.4169  -8.4169
    -8.3177  -8.3177  -8.2195  -8.2195  -4.5746  -4.5746  -4.4388  -4.4388
    -4.3749  -4.3749  -4.3715  -4.3715  -4.3568  -4.3568  -4.3489  -4.3489
    -4.3303  -4.3303  -4.1862  -4.1862   0.0203   0.0203   0.0771   0.0771
     0.3102   0.3102   1.0583   1.0583   1.0595   1.0595   1.1966   1.1966
     1.4915   1.4915   1.5845   1.5845   1.8313   1.8313   1.9330   1.9330
     1.9607   1.9607   1.9621   1.9621   2.0385   2.0385   2.0395   2.0395
     2.1636   2.1636   2.2972   2.2972   2.5011   2.5011   2.5589   2.5589

     highest occupied level (ev):     3.2821

!    total energy              =   -8165.84867694 Ry
     estimated scf accuracy    <       0.00000002 Ry

     The total energy is the sum of the following terms:
     one-electron contribution =    -334.81574540 Ry
     hartree contribution      =     254.90897916 Ry
     xc contribution           =    -792.69860114 Ry
     ewald contribution        =    -643.62751295 Ry
     one-center paw contrib.   =   -6649.61579661 Ry

     convergence has been achieved in  11 iterations

     Forces acting on atoms (cartesian axes, Ry/au):

     atom    1 type  1   force =    -0.00325976   -0.00497101    0.00000000
     atom    2 type  1   force =     0.00325976    0.00497101    0.00000000
     atom    3 type  1   force =    -0.00325976    0.00497101    0.00000000
     atom    4 type  1   force =     0.00325976   -0.00497101   -0.00000000
     atom    5 type  2   force =     0.00000000    0.00000000    0.00000000
     atom    6 type  2   force =    -0.00000000    0.00000000   -0.00000000
     atom    7 type  2   force =     0.00000000    0.00000000   -0.00000000
     atom    8 type  2   force =     0.00000000   -0.00000000    0.00000000
     atom    9 type  3   force =    -0.00106713    0.00224318    0.00000000
     atom   10 type  3   force =     0.00106713   -0.00224318   -0.00000000
     atom   11 type  3   force =    -0.00106713   -0.00224318    0.00000000
     atom   12 type  3   force =     0.00106713    0.00224318    0.00000000
     atom   13 type  3   force =    -0.00365098   -0.00462758    0.00153533
     atom   14 type  3   force =     0.00365098    0.00462758    0.00153533
     atom   15 type  3   force =    -0.00365098    0.00462758   -0.00153533
     atom   16 type  3   force =     0.00365098   -0.00462758   -0.00153533
     atom   17 type  3   force =     0.00365098    0.00462758   -0.00153533
     atom   18 type  3   force =    -0.00365098   -0.00462758   -0.00153533
     atom   19 type  3   force =     0.00365098   -0.00462758    0.00153533
     atom   20 type  3   force =    -0.00365098    0.00462758    0.00153533

     Total force =     0.021514     Total SCF correction =     0.000041


     Computing stress (Cartesian axis) and pressure

          total   stress  (Ry/bohr**3)                   (kbar)     P=       -1.39
   0.00001151   0.00000000   0.00000000            1.69        0.00        0.00
   0.00000000  -0.00003309   0.00000000            0.00       -4.87        0.00
   0.00000000   0.00000000  -0.00000684            0.00        0.00       -1.01


     Writing all to output data dir ./tmp/conv_e80.save/ :
     XML data file, charge density, pseudopotentials, collected wavefunctions

     init_run     :    166.30s CPU    170.14s WALL (       1 calls)
     electrons    :   4503.06s CPU   4693.98s WALL (       1 calls)
     forces       :     89.89s CPU     95.85s WALL (       1 calls)
     stress       :    276.21s CPU    286.69s WALL (       1 calls)

     Called by init_run:
     wfcinit      :    156.86s CPU    158.83s WALL (       1 calls)
     potinit      :      2.04s CPU      2.18s WALL (       1 calls)
     hinit0       :      1.00s CPU      1.05s WALL (       1 calls)

     Called by electrons:
     c_bands      :   3966.91s CPU   4021.61s WALL (      12 calls)
     sum_band     :    461.18s CPU    538.55s WALL (      12 calls)
     v_of_rho     :      8.36s CPU     11.07s WALL (      12 calls)
     newd         :     59.38s CPU    114.16s WALL (      12 calls)
     PAW_pot      :     11.18s CPU     11.28s WALL (      12 calls)
     mix_rho      :      1.80s CPU      2.60s WALL (      12 calls)

     Called by c_bands:
     init_us_2    :     20.39s CPU     24.34s WALL (     486 calls)
     cegterg      :   3928.47s CPU   3968.16s WALL (     216 calls)

     Called by *egterg:
     cdiaghg      :     22.23s CPU     22.34s WALL (     954 calls)
     h_psi        :   1855.67s CPU   1884.35s WALL (     990 calls)
     s_psi        :    581.78s CPU    581.99s WALL (     990 calls)
     g_psi        :      5.38s CPU      5.39s WALL (     756 calls)

     Called by h_psi:
     h_psi:calbec :    597.97s CPU    598.27s WALL (     990 calls)
     vloc_psi     :    670.49s CPU    694.08s WALL (     990 calls)
     add_vuspsi   :    584.03s CPU    584.10s WALL (     990 calls)

     General routines
     calbec       :   1119.09s CPU   1119.57s WALL (    1512 calls)
     fft          :      7.98s CPU      8.93s WALL (     180 calls)
     ffts         :      0.62s CPU      0.66s WALL (      24 calls)
     fftw         :    674.71s CPU    699.49s WALL (  123916 calls)
     interpolate  :      0.99s CPU      1.09s WALL (      12 calls)

     Parallel routines

     PWSCF        :      1h23m CPU      1h27m WALL


   This run was terminated on:   2: 0: 0   5Oct2026            

=------------------------------------------------------------------------------=
   JOB DONE.
=------------------------------------------------------------------------------=
