
     Program PWSCF v.7.6 starts on  4Oct2026 at 16:40:18 

     This program is part of the open-source Quantum ESPRESSO suite
     for quantum simulation of materials; please cite
         "P. Giannozzi et al., J. Phys.:Condens. Matter 21 395502 (2009);
         "P. Giannozzi et al., J. Phys.:Condens. Matter 29 465901 (2017);
         "P. Giannozzi et al., J. Chem. Phys. 152 154105 (2020);
          URL http://www.quantum-espresso.org", 
     in publications or presentations arising from this work. More details at
     http://www.quantum-espresso.org/quote

     Parallel version (MPI), running on     6 processors

     MPI processes distributed on     1 nodes
     5982 MiB available memory on the printing compute node when the environment starts

     Reading input from conv/k221.in
Warning: card &CELL ignored
Warning: card   CELL_DYNAMICS  = 'BFGS' ignored
Warning: card   PRESS          = 0.0 ignored
Warning: card   PRESS_CONV_THR = 0.5 ignored
Warning: card   CELL_DOFREE    = 'ALL' ignored

     Current dimensions of program PWSCF are:
     Max number of different atomic species (ntypx) = 10
     Max number of k-points (npk) =  40000
     Max angular momentum in pseudopotentials (lmaxx) =  4
     file Pb.pbesol-dn-kjpaw_psl.0.2.2.UPF: wavefunction(s)  6S renormalized
     Message from routine setup:
     using ibrav=0 with symmetry is DISCOURAGED, use correct ibrav instead

     R & G space division:  proc/nbgrp/npool/nimage =       6
     Subspace diagonalization in iterative solution of the eigenvalue problem:
     a serial algorithm will be used


     Parallelization info
     --------------------
     sticks:   dense  smooth     PW     G-vecs:    dense   smooth      PW
     Min        1441     720    193               143941    50894    7121
     Max        1442     721    194               143944    50897    7124
     Sum        8649    4323   1163               863659   305373   42741

     Using Slab Decomposition



     bravais-lattice index     =            0
     lattice parameter (alat)  =      16.2074  a.u.
     unit-cell volume          =    6392.8915 (a.u.)^3
     number of atoms/cell      =           20
     number of atomic types    =            3
     number of electrons       =       176.00
     number of Kohn-Sham states=           88
     kinetic-energy cutoff     =      50.0000  Ry
     charge density cutoff     =     400.0000  Ry
     scf convergence threshold =      1.0E-07
     mixing beta               =       0.5000
     number of iterations used =            8  plain     mixing
     Exchange-correlation= SLA  PW   PSX  PSC
                           (   1   4  10   8   0   0   0)

     celldm(1)=  16.207425  celldm(2)=   0.000000  celldm(3)=   0.000000
     celldm(4)=   0.000000  celldm(5)=   0.000000  celldm(6)=   0.000000

     crystal axes: (cart. coord. in units of alat)
               a(1) = (   1.000000   0.000000   0.000000 )  
               a(2) = (   0.000000   1.032589   0.000000 )  
               a(3) = (   0.000000   0.000000   1.454213 )  

     reciprocal axes: (cart. coord. in units 2 pi/alat)
               b(1) = (  1.000000  0.000000  0.000000 )  
               b(2) = (  0.000000  0.968440  0.000000 )  
               b(3) = (  0.000000  0.000000  0.687657 )  


     PseudoPot. # 1 for Cs read from file:
     /home/duydao/pseudo_pbesol/cs_pbesol_v1.uspp.F.UPF
     MD5 check sum: ae4559e5c840913b791237f814e2d884
     Pseudo is Ultrasoft + core correction, Zval =  9.0
     Generated by new atomic code, or converted to UPF format
     Using radial grid of  905 points,  6 beta functions with: 
                l(1) =   0
                l(2) =   0
                l(3) =   1
                l(4) =   1
                l(5) =   2
                l(6) =   2
     Q(r) pseudized with  6 coefficients,  rinner =    1.500   1.500   1.500
                                                       1.500   1.500

     PseudoPot. # 2 for Pb read from file:
     /home/duydao/pseudo_pbesol/Pb.pbesol-dn-kjpaw_psl.0.2.2.UPF
     MD5 check sum: df0e0ac60519e244e20a4bf230ae894d
     Pseudo is Projector augmented-wave + core cor, Zval = 14.0
     Generated using "atomic" code by A. Dal Corso  v.6.0 svn rev. 13079
     Shape of augmentation charge: PSQ
     Using radial grid of 1281 points,  6 beta functions with: 
                l(1) =   0
                l(2) =   0
                l(3) =   1
                l(4) =   1
                l(5) =   2
                l(6) =   2
     Q(r) pseudized with 0 coefficients 


     PseudoPot. # 3 for I  read from file:
     /home/duydao/pseudo_pbesol/I.pbesol-n-kjpaw_psl.0.2.UPF
     MD5 check sum: cecf1a22a184a0b1ae701638a037a48d
     Pseudo is Projector augmented-wave + core cor, Zval =  7.0
     Generated using "atomic" code by A. Dal Corso  v.6.0 svn rev. 13079
     Shape of augmentation charge: PSQ
     Using radial grid of 1247 points,  4 beta functions with: 
                l(1) =   0
                l(2) =   0
                l(3) =   1
                l(4) =   1
     Q(r) pseudized with 0 coefficients 


     atomic species   valence    mass     pseudopotential
     Cs                9.00   132.90500     Cs( 1.00)
     Pb               14.00   207.20000     Pb( 1.00)
     I                 7.00   126.90400     I ( 1.00)

      8 Sym. Ops., with inversion, found ( 6 have fractional translation)



   Cartesian axes

     site n.     atom                  positions (alat units)
         1        Cs     tau(   1) = (   0.5050900   0.4749392   0.3635532  )
         2        Cs     tau(   2) = (   0.4949100   0.5576495   1.0906595  )
         3        Cs     tau(   3) = (   0.0050900   0.0413552   1.0906595  )
         4        Cs     tau(   4) = (   0.9949100   0.9912335   0.3635532  )
         5        Pb     tau(   5) = (   0.5000000   0.0000000   0.0000000  )
         6        Pb     tau(   6) = (   0.5000000   0.0000000   0.7271063  )
         7        Pb     tau(   7) = (   0.0000000   0.5162943   0.0000000  )
         8        Pb     tau(   8) = (   0.0000000   0.5162943   0.7271063  )
         9        I      tau(   9) = (   0.5620200   0.0011668   0.3635532  )
        10        I      tau(  10) = (   0.4379800   1.0314218   1.0906595  )
        11        I      tau(  11) = (   0.0620200   0.5151275   1.0906595  )
        12        I      tau(  12) = (   0.9379800   0.5174612   0.3635532  )
        13        I      tau(  13) = (   0.6973100   0.3153319   1.4021954  )
        14        I      tau(  14) = (   0.3026900   0.7172567   0.6750891  )
        15        I      tau(  15) = (   0.1973100   0.2009624   0.0520172  )
        16        I      tau(  16) = (   0.8026900   0.8316263   0.7791235  )
        17        I      tau(  17) = (   0.3026900   0.7172567   0.0520172  )
        18        I      tau(  18) = (   0.6973100   0.3153319   0.7791235  )
        19        I      tau(  19) = (   0.8026900   0.8316263   1.4021954  )
        20        I      tau(  20) = (   0.1973100   0.2009624   0.6750891  )

     number of k points=     4
                       cart. coord. in units 2pi/alat
        k(    1) = (   0.0000000   0.0000000   0.0000000), wk =   0.5000000
        k(    2) = (   0.0000000  -0.4842199   0.0000000), wk =   0.5000000
        k(    3) = (  -0.5000000   0.0000000   0.0000000), wk =   0.5000000
        k(    4) = (  -0.5000000  -0.4842199   0.0000000), wk =   0.5000000

     Dense  grid:   863659 G-vectors     FFT dimensions: ( 108, 108, 160)

     Smooth grid:   305373 G-vectors     FFT dimensions: (  80,  80, 108)

     Estimated max dynamical RAM per process >     644.72 MB

     Estimated total dynamical RAM >       3.78 GB

     Initial potential from superposition of free atoms

     starting charge     175.8397, renormalised to     176.0000
     Starting wfcs are  136 randomized atomic wfcs
     Checking if some PAW data can be deallocated... 

     total cpu time spent up to now is       25.9 secs

     Self-consistent Calculation

     iteration #  1     ecut=    50.00 Ry     beta= 0.50
     Davidson diagonalization with overlap
     ethr =  1.00E-02,  avg # of iterations =  2.0

     Threshold (ethr) on eigenvalues was too large:
     Diagonalizing with lowered threshold

     Davidson diagonalization with overlap
     ethr =  2.47E-04,  avg # of iterations =  5.5

     total cpu time spent up to now is      127.5 secs

     total energy              =   -8165.66529567 Ry
     estimated scf accuracy    <       0.38447431 Ry

     iteration #  2     ecut=    50.00 Ry     beta= 0.50
     Davidson diagonalization with overlap
     ethr =  2.18E-04,  avg # of iterations =  3.2

     total cpu time spent up to now is      191.0 secs

     total energy              =   -8165.76593180 Ry
     estimated scf accuracy    <       0.01479972 Ry

     iteration #  3     ecut=    50.00 Ry     beta= 0.50
     Davidson diagonalization with overlap
     ethr =  8.41E-06,  avg # of iterations =  5.0

     total cpu time spent up to now is      261.2 secs

     total energy              =   -8165.77607616 Ry
     estimated scf accuracy    <       0.00571017 Ry

     iteration #  4     ecut=    50.00 Ry     beta= 0.50
     Davidson diagonalization with overlap
     ethr =  3.24E-06,  avg # of iterations =  2.2

     total cpu time spent up to now is      309.1 secs

     total energy              =   -8165.77723078 Ry
     estimated scf accuracy    <       0.00056245 Ry

     iteration #  5     ecut=    50.00 Ry     beta= 0.50
     Davidson diagonalization with overlap
     ethr =  3.20E-07,  avg # of iterations =  4.2

     total cpu time spent up to now is      370.5 secs

     total energy              =   -8165.77740001 Ry
     estimated scf accuracy    <       0.00037519 Ry

     iteration #  6     ecut=    50.00 Ry     beta= 0.50
     Davidson diagonalization with overlap
     ethr =  2.13E-07,  avg # of iterations =  1.0

     total cpu time spent up to now is      405.2 secs

     total energy              =   -8165.77727443 Ry
     estimated scf accuracy    <       0.00030274 Ry

     iteration #  7     ecut=    50.00 Ry     beta= 0.50
     Davidson diagonalization with overlap
     ethr =  1.72E-07,  avg # of iterations =  4.0

     total cpu time spent up to now is      460.5 secs

     total energy              =   -8165.77736118 Ry
     estimated scf accuracy    <       0.00012120 Ry

     iteration #  8     ecut=    50.00 Ry     beta= 0.50
     Davidson diagonalization with overlap
     ethr =  6.89E-08,  avg # of iterations =  1.2

     total cpu time spent up to now is      497.3 secs

     total energy              =   -8165.77734857 Ry
     estimated scf accuracy    <       0.00005218 Ry

     iteration #  9     ecut=    50.00 Ry     beta= 0.50
     Davidson diagonalization with overlap
     ethr =  2.96E-08,  avg # of iterations =  4.0

     total cpu time spent up to now is      545.7 secs

     total energy              =   -8165.77735583 Ry
     estimated scf accuracy    <       0.00000050 Ry

     iteration # 10     ecut=    50.00 Ry     beta= 0.50
     Davidson diagonalization with overlap
     ethr =  2.86E-10,  avg # of iterations =  8.5

     total cpu time spent up to now is      650.4 secs

     total energy              =   -8165.77735735 Ry
     estimated scf accuracy    <       0.00000266 Ry

     iteration # 11     ecut=    50.00 Ry     beta= 0.50
     Davidson diagonalization with overlap
     ethr =  2.86E-10,  avg # of iterations =  4.2

     total cpu time spent up to now is      696.4 secs

     total energy              =   -8165.77735736 Ry
     estimated scf accuracy    <       0.00000041 Ry

     iteration # 12     ecut=    50.00 Ry     beta= 0.50
     Davidson diagonalization with overlap
     ethr =  2.32E-10,  avg # of iterations =  3.5

     total cpu time spent up to now is      736.0 secs

     End of self-consistent calculation

          k = 0.0000 0.0000 0.0000 ( 38185 PWs)   bands (ev):

   -17.5448 -17.5441 -17.5435 -17.5430 -13.3422 -13.3359 -13.3288 -13.3222
   -13.3102 -13.3102 -13.2905 -13.2904 -13.2799 -13.2799 -13.2793 -13.2793
   -13.2717 -13.2715 -13.2713 -13.2711 -13.2531 -13.2530 -13.2522 -13.2522
    -8.9273  -8.7477  -8.4317  -8.4243  -8.4237  -8.4108  -8.4060  -8.3584
    -8.3446  -8.2080  -8.2035  -8.1448  -5.2015  -4.6636  -4.3891  -4.3887
    -4.3863  -4.3792  -4.3698  -4.3658  -4.3636  -4.3635  -4.3594  -4.3498
    -4.3318  -4.3306  -4.1472  -3.6690  -0.1785  -0.1472  -0.1232  -0.0437
     0.0091   0.0897   0.9829   1.2189   1.2565   1.2803   1.2814   1.4125
     1.6183   1.7517   1.7539   1.7662   1.8348   1.8574   1.9036   1.9085
     1.9823   1.9929   1.9998   2.0191   2.0927   2.1400   2.2258   2.2646
     2.2673   2.2786   2.3291   2.4392   2.5243   2.5851   2.7909   3.2862

          k = 0.0000-0.4842 0.0000 ( 38174 PWs)   bands (ev):

   -17.5441 -17.5441 -17.5435 -17.5435 -13.3390 -13.3390 -13.3255 -13.3255
   -13.3004 -13.3004 -13.3004 -13.3004 -13.2799 -13.2799 -13.2794 -13.2794
   -13.2716 -13.2716 -13.2712 -13.2712 -13.2527 -13.2527 -13.2526 -13.2526
    -8.7680  -8.7680  -8.5944  -8.5944  -8.3574  -8.3574  -8.3155  -8.3155
    -8.3076  -8.3076  -8.1975  -8.1975  -4.7494  -4.7494  -4.4025  -4.4025
    -4.3703  -4.3703  -4.3612  -4.3612  -4.3604  -4.3604  -4.3491  -4.3491
    -4.3327  -4.3327  -4.1604  -4.1604  -0.0520  -0.0520   0.4702   0.4702
     0.6255   0.6255   0.7537   0.7537   0.8981   0.8981   1.1886   1.1886
     1.4576   1.4576   1.5860   1.5860   1.6762   1.6762   1.9163   1.9163
     1.9413   1.9413   2.0298   2.0298   2.0589   2.0589   2.1928   2.1928
     2.2141   2.2141   2.3180   2.3180   2.4391   2.4391   2.7112   2.7112

          k =-0.5000 0.0000 0.0000 ( 38160 PWs)   bands (ev):

   -17.5441 -17.5441 -17.5435 -17.5435 -13.3390 -13.3390 -13.3255 -13.3255
   -13.3004 -13.3004 -13.3004 -13.3004 -13.2799 -13.2799 -13.2793 -13.2793
   -13.2716 -13.2716 -13.2712 -13.2712 -13.2527 -13.2527 -13.2526 -13.2526
    -8.7692  -8.7692  -8.5912  -8.5912  -8.3582  -8.3582  -8.3234  -8.3234
    -8.3110  -8.3110  -8.1894  -8.1894  -4.7508  -4.7508  -4.4114  -4.4114
    -4.3705  -4.3705  -4.3683  -4.3683  -4.3565  -4.3565  -4.3453  -4.3453
    -4.3235  -4.3235  -4.1480  -4.1480  -0.0565  -0.0565   0.4698   0.4698
     0.6432   0.6432   0.7256   0.7256   0.8918   0.8918   1.1297   1.1297
     1.4200   1.4200   1.6531   1.6531   1.7498   1.7498   1.8912   1.8912
     1.9653   1.9653   2.0510   2.0510   2.1067   2.1067   2.1842   2.1842
     2.2819   2.2819   2.3039   2.3039   2.3480   2.3480   2.6554   2.6554

          k =-0.5000-0.4842 0.0000 ( 38168 PWs)   bands (ev):

   -17.5441 -17.5441 -17.5435 -17.5435 -13.3398 -13.3398 -13.3267 -13.3267
   -13.2997 -13.2997 -13.2992 -13.2992 -13.2799 -13.2799 -13.2793 -13.2793
   -13.2716 -13.2716 -13.2712 -13.2712 -13.2527 -13.2527 -13.2526 -13.2526
    -8.7186  -8.7186  -8.4755  -8.4755  -8.4419  -8.4419  -8.4418  -8.4418
    -8.3527  -8.3527  -8.1375  -8.1375  -4.7054  -4.7054  -4.4026  -4.4026
    -4.3680  -4.3680  -4.3550  -4.3550  -4.3514  -4.3514  -4.3495  -4.3495
    -4.3403  -4.3403  -4.0882  -4.0882  -0.0924  -0.0924  -0.0326  -0.0326
     0.1646   0.1646   1.0075   1.0075   1.1751   1.1751   1.4908   1.4908
     1.5382   1.5382   1.7595   1.7595   1.8145   1.8145   1.9240   1.9240
     1.9353   1.9353   1.9781   1.9781   2.0364   2.0364   2.0523   2.0523
     2.1324   2.1324   2.3064   2.3064   2.5534   2.5534   2.8194   2.8194

     highest occupied level (ev):     3.2862

!    total energy              =   -8165.77735737 Ry
     estimated scf accuracy    <       0.00000005 Ry

     The total energy is the sum of the following terms:
     one-electron contribution =    -334.58912629 Ry
     hartree contribution      =     254.85452613 Ry
     xc contribution           =    -792.77670351 Ry
     ewald contribution        =    -643.62751295 Ry
     one-center paw contrib.   =   -6649.63854075 Ry

     convergence has been achieved in  12 iterations

     Forces acting on atoms (cartesian axes, Ry/au):

     atom    1 type  1   force =    -0.00252704   -0.00499988    0.00000000
     atom    2 type  1   force =     0.00252704    0.00499988   -0.00000000
     atom    3 type  1   force =    -0.00252704    0.00499988    0.00000000
     atom    4 type  1   force =     0.00252704   -0.00499988    0.00000000
     atom    5 type  2   force =    -0.00000000    0.00000000    0.00000000
     atom    6 type  2   force =    -0.00000000    0.00000000    0.00000000
     atom    7 type  2   force =    -0.00000000    0.00000000    0.00000000
     atom    8 type  2   force =     0.00000000    0.00000000   -0.00000000
     atom    9 type  3   force =     0.00856729    0.00217923    0.00000000
     atom   10 type  3   force =    -0.00856729   -0.00217923    0.00000000
     atom   11 type  3   force =     0.00856729   -0.00217923    0.00000000
     atom   12 type  3   force =    -0.00856729    0.00217923    0.00000000
     atom   13 type  3   force =    -0.00391030   -0.00427388    0.00210722
     atom   14 type  3   force =     0.00391030    0.00427388    0.00210722
     atom   15 type  3   force =    -0.00391030    0.00427388   -0.00210722
     atom   16 type  3   force =     0.00391030   -0.00427388   -0.00210722
     atom   17 type  3   force =     0.00391030    0.00427388   -0.00210722
     atom   18 type  3   force =    -0.00391030   -0.00427388   -0.00210722
     atom   19 type  3   force =     0.00391030   -0.00427388    0.00210722
     atom   20 type  3   force =    -0.00391030    0.00427388    0.00210722

     Total force =     0.027242     Total SCF correction =     0.000053


     Computing stress (Cartesian axis) and pressure

          total   stress  (Ry/bohr**3)                   (kbar)     P=        2.18
   0.00001469   0.00000000   0.00000000            2.16        0.00        0.00
   0.00000000  -0.00003470   0.00000000            0.00       -5.10        0.00
   0.00000000   0.00000000   0.00006444            0.00        0.00        9.48


     Writing all to output data dir ./tmp/conv_k221.save/ :
     XML data file, charge density, pseudopotentials, collected wavefunctions

     init_run     :     24.23s CPU     25.43s WALL (       1 calls)
     electrons    :    683.46s CPU    710.23s WALL (       1 calls)
     forces       :     13.34s CPU     14.31s WALL (       1 calls)
     stress       :     40.54s CPU     42.22s WALL (       1 calls)

     Called by init_run:
     wfcinit      :     19.10s CPU     19.30s WALL (       1 calls)
     potinit      :      1.75s CPU      1.83s WALL (       1 calls)
     hinit0       :      0.64s CPU      0.68s WALL (       1 calls)

     Called by electrons:
     c_bands      :    547.06s CPU    550.46s WALL (      13 calls)
     sum_band     :     87.32s CPU    100.58s WALL (      13 calls)
     v_of_rho     :      5.03s CPU      5.24s WALL (      13 calls)
     newd         :     32.73s CPU     43.41s WALL (      13 calls)
     PAW_pot      :     13.27s CPU     13.28s WALL (      13 calls)
     mix_rho      :      1.11s CPU      1.15s WALL (      13 calls)

     Called by c_bands:
     init_us_2    :      2.39s CPU      2.41s WALL (     116 calls)
     cegterg      :    541.31s CPU    544.70s WALL (      52 calls)

     Called by *egterg:
     cdiaghg      :      6.87s CPU      6.87s WALL (     243 calls)
     h_psi        :    239.06s CPU    242.10s WALL (     251 calls)
     s_psi        :     78.11s CPU     78.13s WALL (     251 calls)
     g_psi        :      0.82s CPU      0.82s WALL (     195 calls)

     Called by h_psi:
     h_psi:calbec :     81.28s CPU     81.37s WALL (     251 calls)
     vloc_psi     :     78.20s CPU     80.92s WALL (     251 calls)
     add_vuspsi   :     79.00s CPU     79.03s WALL (     251 calls)

     General routines
     calbec       :    139.18s CPU    139.30s WALL (     371 calls)
     fft          :      4.54s CPU      4.81s WALL (     193 calls)
     ffts         :      0.44s CPU      0.46s WALL (      26 calls)
     fftw         :     79.83s CPU     82.64s WALL (   31994 calls)
     interpolate  :      0.70s CPU      0.73s WALL (      13 calls)

     Parallel routines

     PWSCF        :  12m42.14s CPU  13m12.95s WALL


   This run was terminated on:  16:53:31   4Oct2026            

=------------------------------------------------------------------------------=
   JOB DONE.
=------------------------------------------------------------------------------=
