
     Program PWSCF v.7.6 starts on  4Oct2026 at 16:53:32 

     This program is part of the open-source Quantum ESPRESSO suite
     for quantum simulation of materials; please cite
         "P. Giannozzi et al., J. Phys.:Condens. Matter 21 395502 (2009);
         "P. Giannozzi et al., J. Phys.:Condens. Matter 29 465901 (2017);
         "P. Giannozzi et al., J. Chem. Phys. 152 154105 (2020);
          URL http://www.quantum-espresso.org", 
     in publications or presentations arising from this work. More details at
     http://www.quantum-espresso.org/quote

     Parallel version (MPI), running on     6 processors

     MPI processes distributed on     1 nodes
     5724 MiB available memory on the printing compute node when the environment starts

     Reading input from conv/k332.in
Warning: card &CELL ignored
Warning: card   CELL_DYNAMICS  = 'BFGS' ignored
Warning: card   PRESS          = 0.0 ignored
Warning: card   PRESS_CONV_THR = 0.5 ignored
Warning: card   CELL_DOFREE    = 'ALL' ignored

     Current dimensions of program PWSCF are:
     Max number of different atomic species (ntypx) = 10
     Max number of k-points (npk) =  40000
     Max angular momentum in pseudopotentials (lmaxx) =  4
     file Pb.pbesol-dn-kjpaw_psl.0.2.2.UPF: wavefunction(s)  6S renormalized
     Message from routine setup:
     using ibrav=0 with symmetry is DISCOURAGED, use correct ibrav instead

     R & G space division:  proc/nbgrp/npool/nimage =       6
     Subspace diagonalization in iterative solution of the eigenvalue problem:
     a serial algorithm will be used


     Parallelization info
     --------------------
     sticks:   dense  smooth     PW     G-vecs:    dense   smooth      PW
     Min        1441     720    191               143941    50894    6981
     Max        1442     721    192               143944    50897    6984
     Sum        8649    4323   1147               863659   305373   41897

     Using Slab Decomposition



     bravais-lattice index     =            0
     lattice parameter (alat)  =      16.2074  a.u.
     unit-cell volume          =    6392.8915 (a.u.)^3
     number of atoms/cell      =           20
     number of atomic types    =            3
     number of electrons       =       176.00
     number of Kohn-Sham states=           88
     kinetic-energy cutoff     =      50.0000  Ry
     charge density cutoff     =     400.0000  Ry
     scf convergence threshold =      1.0E-07
     mixing beta               =       0.5000
     number of iterations used =            8  plain     mixing
     Exchange-correlation= SLA  PW   PSX  PSC
                           (   1   4  10   8   0   0   0)

     celldm(1)=  16.207425  celldm(2)=   0.000000  celldm(3)=   0.000000
     celldm(4)=   0.000000  celldm(5)=   0.000000  celldm(6)=   0.000000

     crystal axes: (cart. coord. in units of alat)
               a(1) = (   1.000000   0.000000   0.000000 )  
               a(2) = (   0.000000   1.032589   0.000000 )  
               a(3) = (   0.000000   0.000000   1.454213 )  

     reciprocal axes: (cart. coord. in units 2 pi/alat)
               b(1) = (  1.000000  0.000000  0.000000 )  
               b(2) = (  0.000000  0.968440  0.000000 )  
               b(3) = (  0.000000  0.000000  0.687657 )  


     PseudoPot. # 1 for Cs read from file:
     /home/duydao/pseudo_pbesol/cs_pbesol_v1.uspp.F.UPF
     MD5 check sum: ae4559e5c840913b791237f814e2d884
     Pseudo is Ultrasoft + core correction, Zval =  9.0
     Generated by new atomic code, or converted to UPF format
     Using radial grid of  905 points,  6 beta functions with: 
                l(1) =   0
                l(2) =   0
                l(3) =   1
                l(4) =   1
                l(5) =   2
                l(6) =   2
     Q(r) pseudized with  6 coefficients,  rinner =    1.500   1.500   1.500
                                                       1.500   1.500

     PseudoPot. # 2 for Pb read from file:
     /home/duydao/pseudo_pbesol/Pb.pbesol-dn-kjpaw_psl.0.2.2.UPF
     MD5 check sum: df0e0ac60519e244e20a4bf230ae894d
     Pseudo is Projector augmented-wave + core cor, Zval = 14.0
     Generated using "atomic" code by A. Dal Corso  v.6.0 svn rev. 13079
     Shape of augmentation charge: PSQ
     Using radial grid of 1281 points,  6 beta functions with: 
                l(1) =   0
                l(2) =   0
                l(3) =   1
                l(4) =   1
                l(5) =   2
                l(6) =   2
     Q(r) pseudized with 0 coefficients 


     PseudoPot. # 3 for I  read from file:
     /home/duydao/pseudo_pbesol/I.pbesol-n-kjpaw_psl.0.2.UPF
     MD5 check sum: cecf1a22a184a0b1ae701638a037a48d
     Pseudo is Projector augmented-wave + core cor, Zval =  7.0
     Generated using "atomic" code by A. Dal Corso  v.6.0 svn rev. 13079
     Shape of augmentation charge: PSQ
     Using radial grid of 1247 points,  4 beta functions with: 
                l(1) =   0
                l(2) =   0
                l(3) =   1
                l(4) =   1
     Q(r) pseudized with 0 coefficients 


     atomic species   valence    mass     pseudopotential
     Cs                9.00   132.90500     Cs( 1.00)
     Pb               14.00   207.20000     Pb( 1.00)
     I                 7.00   126.90400     I ( 1.00)

      8 Sym. Ops., with inversion, found ( 6 have fractional translation)



   Cartesian axes

     site n.     atom                  positions (alat units)
         1        Cs     tau(   1) = (   0.5050900   0.4749392   0.3635532  )
         2        Cs     tau(   2) = (   0.4949100   0.5576495   1.0906595  )
         3        Cs     tau(   3) = (   0.0050900   0.0413552   1.0906595  )
         4        Cs     tau(   4) = (   0.9949100   0.9912335   0.3635532  )
         5        Pb     tau(   5) = (   0.5000000   0.0000000   0.0000000  )
         6        Pb     tau(   6) = (   0.5000000   0.0000000   0.7271063  )
         7        Pb     tau(   7) = (   0.0000000   0.5162943   0.0000000  )
         8        Pb     tau(   8) = (   0.0000000   0.5162943   0.7271063  )
         9        I      tau(   9) = (   0.5620200   0.0011668   0.3635532  )
        10        I      tau(  10) = (   0.4379800   1.0314218   1.0906595  )
        11        I      tau(  11) = (   0.0620200   0.5151275   1.0906595  )
        12        I      tau(  12) = (   0.9379800   0.5174612   0.3635532  )
        13        I      tau(  13) = (   0.6973100   0.3153319   1.4021954  )
        14        I      tau(  14) = (   0.3026900   0.7172567   0.6750891  )
        15        I      tau(  15) = (   0.1973100   0.2009624   0.0520172  )
        16        I      tau(  16) = (   0.8026900   0.8316263   0.7791235  )
        17        I      tau(  17) = (   0.3026900   0.7172567   0.0520172  )
        18        I      tau(  18) = (   0.6973100   0.3153319   0.7791235  )
        19        I      tau(  19) = (   0.8026900   0.8316263   1.4021954  )
        20        I      tau(  20) = (   0.1973100   0.2009624   0.6750891  )

     number of k points=     8
                       cart. coord. in units 2pi/alat
        k(    1) = (   0.0000000   0.0000000   0.0000000), wk =   0.1111111
        k(    2) = (   0.0000000   0.0000000  -0.3438287), wk =   0.1111111
        k(    3) = (   0.0000000   0.3228133   0.0000000), wk =   0.2222222
        k(    4) = (   0.0000000   0.3228133  -0.3438287), wk =   0.2222222
        k(    5) = (   0.3333333   0.0000000   0.0000000), wk =   0.2222222
        k(    6) = (   0.3333333   0.0000000  -0.3438287), wk =   0.2222222
        k(    7) = (   0.3333333   0.3228133   0.0000000), wk =   0.4444444
        k(    8) = (   0.3333333   0.3228133  -0.3438287), wk =   0.4444444

     Dense  grid:   863659 G-vectors     FFT dimensions: ( 108, 108, 160)

     Smooth grid:   305373 G-vectors     FFT dimensions: (  80,  80, 108)

     Estimated max dynamical RAM per process >     678.89 MB

     Estimated total dynamical RAM >       3.98 GB

     Initial potential from superposition of free atoms

     starting charge     175.8397, renormalised to     176.0000
     Starting wfcs are  136 randomized atomic wfcs
     Checking if some PAW data can be deallocated... 

     total cpu time spent up to now is       38.3 secs

     Self-consistent Calculation

     iteration #  1     ecut=    50.00 Ry     beta= 0.50
     Davidson diagonalization with overlap
     ethr =  1.00E-02,  avg # of iterations =  1.6

     Threshold (ethr) on eigenvalues was too large:
     Diagonalizing with lowered threshold

     Davidson diagonalization with overlap
     ethr =  2.29E-04,  avg # of iterations =  5.0

     total cpu time spent up to now is      176.8 secs

     total energy              =   -8165.73511450 Ry
     estimated scf accuracy    <       0.35147235 Ry

     iteration #  2     ecut=    50.00 Ry     beta= 0.50
     Davidson diagonalization with overlap
     ethr =  2.00E-04,  avg # of iterations =  3.1

     total cpu time spent up to now is      256.6 secs

     total energy              =   -8165.82919947 Ry
     estimated scf accuracy    <       0.01425652 Ry

     iteration #  3     ecut=    50.00 Ry     beta= 0.50
     Davidson diagonalization with overlap
     ethr =  8.10E-06,  avg # of iterations =  4.9

     total cpu time spent up to now is      363.4 secs

     total energy              =   -8165.83924538 Ry
     estimated scf accuracy    <       0.00549356 Ry

     iteration #  4     ecut=    50.00 Ry     beta= 0.50
     Davidson diagonalization with overlap
     ethr =  3.12E-06,  avg # of iterations =  2.8

     total cpu time spent up to now is      454.1 secs

     total energy              =   -8165.84035534 Ry
     estimated scf accuracy    <       0.00058634 Ry

     iteration #  5     ecut=    50.00 Ry     beta= 0.50
     Davidson diagonalization with overlap
     ethr =  3.33E-07,  avg # of iterations =  4.1

     total cpu time spent up to now is      557.2 secs

     total energy              =   -8165.84047464 Ry
     estimated scf accuracy    <       0.00031770 Ry

     iteration #  6     ecut=    50.00 Ry     beta= 0.50
     Davidson diagonalization with overlap
     ethr =  1.81E-07,  avg # of iterations =  1.6

     total cpu time spent up to now is      625.3 secs

     total energy              =   -8165.84043040 Ry
     estimated scf accuracy    <       0.00015430 Ry

     iteration #  7     ecut=    50.00 Ry     beta= 0.50
     Davidson diagonalization with overlap
     ethr =  8.77E-08,  avg # of iterations =  4.0

     total cpu time spent up to now is      727.7 secs

     total energy              =   -8165.84047960 Ry
     estimated scf accuracy    <       0.00003737 Ry

     iteration #  8     ecut=    50.00 Ry     beta= 0.50
     Davidson diagonalization with overlap
     ethr =  2.12E-08,  avg # of iterations =  1.9

     total cpu time spent up to now is      794.9 secs

     total energy              =   -8165.84047455 Ry
     estimated scf accuracy    <       0.00001668 Ry

     iteration #  9     ecut=    50.00 Ry     beta= 0.50
     Davidson diagonalization with overlap
     ethr =  9.48E-09,  avg # of iterations =  4.0

     total cpu time spent up to now is      891.3 secs

     total energy              =   -8165.84047935 Ry
     estimated scf accuracy    <       0.00000740 Ry

     iteration # 10     ecut=    50.00 Ry     beta= 0.50
     Davidson diagonalization with overlap
     ethr =  4.20E-09,  avg # of iterations =  1.4

     total cpu time spent up to now is      953.5 secs

     total energy              =   -8165.84047875 Ry
     estimated scf accuracy    <       0.00000267 Ry

     iteration # 11     ecut=    50.00 Ry     beta= 0.50
     Davidson diagonalization with overlap
     ethr =  1.52E-09,  avg # of iterations =  4.6

     total cpu time spent up to now is     1045.3 secs

     End of self-consistent calculation

          k = 0.0000 0.0000 0.0000 ( 38185 PWs)   bands (ev):

   -17.5548 -17.5541 -17.5535 -17.5530 -13.2711 -13.2647 -13.2589 -13.2588
   -13.2568 -13.2499 -13.2388 -13.2388 -13.2116 -13.2115 -13.2110 -13.2110
   -13.2053 -13.2050 -13.2049 -13.2046 -13.2001 -13.1999 -13.1995 -13.1993
    -8.9414  -8.7264  -8.5184  -8.4649  -8.4561  -8.4063  -8.4029  -8.3918
    -8.3870  -8.2093  -8.1891  -8.1859  -5.1611  -4.6315  -4.4013  -4.3993
    -4.3915  -4.3814  -4.3783  -4.3767  -4.3705  -4.3701  -4.3697  -4.3604
    -4.3426  -4.3394  -4.1206  -3.6271  -0.2114  -0.1301  -0.1065  -0.0258
     0.0239   0.0428   0.9970   1.2360   1.2529   1.2580   1.2659   1.3865
     1.5698   1.7397   1.7621   1.7701   1.8238   1.8332   1.8764   1.9276
     1.9361   1.9371   1.9903   2.0165   2.0419   2.1564   2.2281   2.2490
     2.2516   2.2537   2.3324   2.4081   2.5027   2.5573   2.8133   3.2828

          k = 0.0000 0.0000-0.3438 ( 38134 PWs)   bands (ev):

   -17.5545 -17.5545 -17.5533 -17.5533 -13.2640 -13.2640 -13.2590 -13.2590
   -13.2571 -13.2571 -13.2388 -13.2388 -13.2113 -13.2113 -13.2113 -13.2113
   -13.2051 -13.2051 -13.2047 -13.2047 -13.2000 -13.2000 -13.1994 -13.1994
    -8.8609  -8.8609  -8.4875  -8.4875  -8.4004  -8.4004  -8.3955  -8.3955
    -8.3093  -8.3093  -8.1871  -8.1871  -4.9076  -4.9076  -4.3968  -4.3968
    -4.3851  -4.3851  -4.3706  -4.3706  -4.3628  -4.3628  -4.3598  -4.3598
    -4.3579  -4.3579  -3.9256  -3.9256  -0.0762  -0.0762  -0.0595  -0.0595
     0.6045   0.6045   0.8385   0.8385   1.1091   1.1091   1.3326   1.3326
     1.3796   1.3796   1.7321   1.7321   1.8258   1.8258   1.9390   1.9390
     1.9576   1.9576   1.9954   1.9954   2.1569   2.1569   2.1717   2.1717
     2.2466   2.2466   2.2488   2.2488   2.4508   2.4508   2.8902   2.8902

          k = 0.0000 0.3228 0.0000 ( 38192 PWs)   bands (ev):

   -17.5545 -17.5538 -17.5538 -17.5533 -13.2695 -13.2663 -13.2551 -13.2540
   -13.2539 -13.2515 -13.2438 -13.2438 -13.2116 -13.2115 -13.2110 -13.2110
   -13.2052 -13.2050 -13.2049 -13.2047 -13.2000 -13.1998 -13.1997 -13.1995
    -8.8715  -8.6904  -8.6532  -8.4877  -8.4630  -8.4567  -8.3511  -8.3381
    -8.2982  -8.2414  -8.2387  -8.2268  -4.9366  -4.5029  -4.4772  -4.4015
    -4.3881  -4.3837  -4.3755  -4.3703  -4.3658  -4.3655  -4.3628  -4.3557
    -4.3496  -4.2903  -4.2794  -3.9050  -0.1501  -0.0393   0.1666   0.3085
     0.3254   0.4327   0.9489   1.0001   1.1590   1.1684   1.1980   1.2531
     1.3349   1.4296   1.5439   1.5735   1.8088   1.8580   1.8898   1.8992
     1.9237   1.9352   1.9946   2.0225   2.0509   2.0721   2.1070   2.1583
     2.2117   2.2177   2.3226   2.3310   2.4581   2.4866   2.6070   2.8411

          k = 0.0000 0.3228-0.3438 ( 38222 PWs)   bands (ev):

   -17.5542 -17.5542 -17.5536 -17.5536 -13.2623 -13.2623 -13.2590 -13.2590
   -13.2538 -13.2538 -13.2438 -13.2438 -13.2113 -13.2113 -13.2113 -13.2113
   -13.2050 -13.2050 -13.2048 -13.2048 -13.1999 -13.1999 -13.1996 -13.1996
    -8.7925  -8.7925  -8.6250  -8.6250  -8.3455  -8.3455  -8.3408  -8.3408
    -8.3136  -8.3136  -8.2410  -8.2410  -4.7010  -4.7010  -4.4013  -4.4013
    -4.3824  -4.3824  -4.3739  -4.3739  -4.3661  -4.3661  -4.3578  -4.3578
    -4.3465  -4.3465  -4.1783  -4.1783   0.2309   0.2309   0.3239   0.3239
     0.6840   0.6840   0.7253   0.7253   1.0465   1.0465   1.0788   1.0788
     1.4344   1.4344   1.5468   1.5468   1.6472   1.6472   1.7305   1.7305
     1.8729   1.8729   1.9110   1.9110   2.2003   2.2003   2.2111   2.2111
     2.2478   2.2478   2.2557   2.2557   2.4566   2.4566   2.4967   2.4967

          k = 0.3333 0.0000 0.0000 ( 38180 PWs)   bands (ev):

   -17.5545 -17.5539 -17.5537 -17.5533 -13.2695 -13.2663 -13.2551 -13.2540
   -13.2539 -13.2515 -13.2438 -13.2438 -13.2116 -13.2115 -13.2110 -13.2110
   -13.2052 -13.2050 -13.2049 -13.2047 -13.2000 -13.1998 -13.1997 -13.1995
    -8.8728  -8.6921  -8.6515  -8.4833  -8.4641  -8.4586  -8.3578  -8.3423
    -8.2968  -8.2409  -8.2376  -8.2218  -4.9378  -4.5006  -4.4867  -4.3926
    -4.3881  -4.3849  -4.3805  -4.3796  -4.3737  -4.3647  -4.3555  -4.3529
    -4.3497  -4.2835  -4.2594  -3.9026  -0.1544  -0.0424   0.1709   0.3154
     0.3246   0.4531   0.8389   1.0219   1.1071   1.1423   1.1639   1.2689
     1.3102   1.4783   1.5436   1.6490   1.8426   1.8438   1.8948   1.9228
     1.9482   1.9670   2.0221   2.0246   2.0733   2.0946   2.1259   2.1771
     2.2239   2.2598   2.3230   2.3540   2.3867   2.4169   2.5688   2.7682

          k = 0.3333 0.0000-0.3438 ( 38132 PWs)   bands (ev):

   -17.5542 -17.5542 -17.5535 -17.5535 -13.2623 -13.2623 -13.2590 -13.2590
   -13.2538 -13.2538 -13.2438 -13.2438 -13.2113 -13.2113 -13.2113 -13.2113
   -13.2050 -13.2050 -13.2048 -13.2048 -13.1999 -13.1999 -13.1996 -13.1996
    -8.7931  -8.7931  -8.6250  -8.6250  -8.3547  -8.3547  -8.3425  -8.3425
    -8.3051  -8.3051  -8.2393  -8.2393  -4.7072  -4.7072  -4.4063  -4.4063
    -4.3864  -4.3864  -4.3711  -4.3711  -4.3631  -4.3631  -4.3510  -4.3510
    -4.3395  -4.3395  -4.1741  -4.1741   0.2339   0.2339   0.3331   0.3331
     0.6466   0.6466   0.7334   0.7334   0.9540   0.9540   1.0948   1.0948
     1.4791   1.4791   1.5133   1.5133   1.7156   1.7156   1.7375   1.7375
     1.9533   1.9533   1.9830   1.9830   2.1596   2.1596   2.2262   2.2262
     2.2365   2.2365   2.2816   2.2816   2.3881   2.3881   2.4161   2.4161

          k = 0.3333 0.3228 0.0000 ( 38166 PWs)   bands (ev):

   -17.5543 -17.5540 -17.5537 -17.5534 -13.2697 -13.2679 -13.2574 -13.2548
   -13.2504 -13.2482 -13.2456 -13.2441 -13.2116 -13.2115 -13.2110 -13.2110
   -13.2051 -13.2050 -13.2048 -13.2047 -13.1999 -13.1997 -13.1997 -13.1996
    -8.8180  -8.7161  -8.5826  -8.4683  -8.4630  -8.4394  -8.4148  -8.4090
    -8.3422  -8.3038  -8.2142  -8.1862  -4.8005  -4.5785  -4.4348  -4.3905
    -4.3833  -4.3811  -4.3734  -4.3683  -4.3645  -4.3630  -4.3611  -4.3579
    -4.3502  -4.3203  -4.1720  -3.9845  -0.1411  -0.0930  -0.0443   0.1351
     0.3186   0.5160   0.8760   1.0310   1.0540   1.0618   1.1847   1.4376
     1.4748   1.5382   1.6824   1.7700   1.7760   1.8655   1.8669   1.9164
     1.9301   1.9425   1.9934   2.0158   2.0585   2.0694   2.0936   2.1118
     2.1142   2.1755   2.2222   2.2841   2.4588   2.5281   2.6337   2.8402

          k = 0.3333 0.3228-0.3438 ( 38166 PWs)   bands (ev):

   -17.5540 -17.5540 -17.5537 -17.5537 -13.2630 -13.2630 -13.2611 -13.2611
   -13.2498 -13.2498 -13.2451 -13.2451 -13.2113 -13.2113 -13.2113 -13.2113
   -13.2050 -13.2050 -13.2049 -13.2049 -13.1998 -13.1998 -13.1997 -13.1997
    -8.7369  -8.7369  -8.6380  -8.6380  -8.4157  -8.4157  -8.3595  -8.3595
    -8.2768  -8.2768  -8.2511  -8.2511  -4.5917  -4.5917  -4.4370  -4.4370
    -4.3798  -4.3798  -4.3690  -4.3690  -4.3597  -4.3597  -4.3501  -4.3501
    -4.3214  -4.3214  -4.2363  -4.2363   0.0230   0.0230   0.3741   0.3741
     0.6291   0.6291   0.7427   0.7427   0.9593   0.9593   1.1494   1.1494
     1.4286   1.4286   1.5341   1.5341   1.7507   1.7507   1.8672   1.8672
     1.9303   1.9303   2.0459   2.0459   2.0587   2.0587   2.1609   2.1609
     2.2000   2.2000   2.2812   2.2812   2.3722   2.3722   2.5173   2.5173

     highest occupied level (ev):     3.2828

!    total energy              =   -8165.84047944 Ry
     estimated scf accuracy    <       0.00000009 Ry

     The total energy is the sum of the following terms:
     one-electron contribution =    -334.80120584 Ry
     hartree contribution      =     254.93893219 Ry
     xc contribution           =    -792.71867960 Ry
     ewald contribution        =    -643.62751295 Ry
     one-center paw contrib.   =   -6649.63201323 Ry

     convergence has been achieved in  11 iterations

     Forces acting on atoms (cartesian axes, Ry/au):

     atom    1 type  1   force =    -0.00319246   -0.00497165   -0.00000000
     atom    2 type  1   force =     0.00319246    0.00497165   -0.00000000
     atom    3 type  1   force =    -0.00319246    0.00497165   -0.00000000
     atom    4 type  1   force =     0.00319246   -0.00497165    0.00000000
     atom    5 type  2   force =    -0.00000000    0.00000000    0.00000000
     atom    6 type  2   force =    -0.00000000   -0.00000000    0.00000000
     atom    7 type  2   force =    -0.00000000    0.00000000   -0.00000000
     atom    8 type  2   force =     0.00000000    0.00000000    0.00000000
     atom    9 type  3   force =    -0.00025154    0.00222459    0.00000000
     atom   10 type  3   force =     0.00025154   -0.00222459    0.00000000
     atom   11 type  3   force =    -0.00025154   -0.00222459    0.00000000
     atom   12 type  3   force =     0.00025154    0.00222459    0.00000000
     atom   13 type  3   force =    -0.00371506   -0.00459438    0.00158722
     atom   14 type  3   force =     0.00371506    0.00459438    0.00158722
     atom   15 type  3   force =    -0.00371506    0.00459438   -0.00158722
     atom   16 type  3   force =     0.00371506   -0.00459438   -0.00158722
     atom   17 type  3   force =     0.00371506    0.00459438   -0.00158722
     atom   18 type  3   force =    -0.00371506   -0.00459438   -0.00158722
     atom   19 type  3   force =     0.00371506   -0.00459438    0.00158722
     atom   20 type  3   force =    -0.00371506    0.00459438    0.00158722

     Total force =     0.021427     Total SCF correction =     0.000025


     Computing stress (Cartesian axis) and pressure

          total   stress  (Ry/bohr**3)                   (kbar)     P=       -1.26
   0.00001080   0.00000000   0.00000000            1.59        0.00        0.00
   0.00000000  -0.00003428   0.00000000            0.00       -5.04        0.00
   0.00000000   0.00000000  -0.00000217            0.00        0.00       -0.32


     Writing all to output data dir ./tmp/conv_k332.save/ :
     XML data file, charge density, pseudopotentials, collected wavefunctions

     init_run     :     36.91s CPU     38.02s WALL (       1 calls)
     electrons    :    983.20s CPU   1007.06s WALL (       1 calls)
     forces       :     21.43s CPU     22.49s WALL (       1 calls)
     stress       :     67.63s CPU     69.46s WALL (       1 calls)

     Called by init_run:
     wfcinit      :     31.90s CPU     32.18s WALL (       1 calls)
     potinit      :      1.68s CPU      1.74s WALL (       1 calls)
     hinit0       :      0.58s CPU      0.62s WALL (       1 calls)

     Called by electrons:
     c_bands      :    832.88s CPU    838.38s WALL (      12 calls)
     sum_band     :    109.33s CPU    119.79s WALL (      12 calls)
     v_of_rho     :      3.91s CPU      4.06s WALL (      12 calls)
     newd         :     28.55s CPU     37.00s WALL (      12 calls)
     PAW_pot      :     10.91s CPU     10.91s WALL (      12 calls)
     mix_rho      :      0.71s CPU      0.74s WALL (      12 calls)

     Called by c_bands:
     init_us_2    :      4.27s CPU      4.28s WALL (     216 calls)
     cegterg      :    824.36s CPU    829.84s WALL (      96 calls)

     Called by *egterg:
     cdiaghg      :     10.03s CPU     10.03s WALL (     400 calls)
     h_psi        :    364.92s CPU    370.06s WALL (     416 calls)
     s_psi        :    126.64s CPU    126.69s WALL (     416 calls)
     g_psi        :      1.17s CPU      1.17s WALL (     312 calls)

     Called by h_psi:
     h_psi:calbec :    130.89s CPU    130.96s WALL (     416 calls)
     vloc_psi     :    107.80s CPU    112.59s WALL (     416 calls)
     add_vuspsi   :    125.31s CPU    125.33s WALL (     416 calls)

     General routines
     calbec       :    244.24s CPU    244.37s WALL (     648 calls)
     fft          :      3.73s CPU      3.94s WALL (     180 calls)
     ffts         :      0.41s CPU      0.41s WALL (      24 calls)
     fftw         :    112.14s CPU    117.12s WALL (   54912 calls)
     interpolate  :      0.64s CPU      0.66s WALL (      12 calls)

     Parallel routines

     PWSCF        :  18m29.73s CPU  18m57.91s WALL


   This run was terminated on:  17:12:29   4Oct2026            

=------------------------------------------------------------------------------=
   JOB DONE.
=------------------------------------------------------------------------------=
