
     Program PWSCF v.7.6 starts on  4Oct2026 at 19: 8: 1 

     This program is part of the open-source Quantum ESPRESSO suite
     for quantum simulation of materials; please cite
         "P. Giannozzi et al., J. Phys.:Condens. Matter 21 395502 (2009);
         "P. Giannozzi et al., J. Phys.:Condens. Matter 29 465901 (2017);
         "P. Giannozzi et al., J. Chem. Phys. 152 154105 (2020);
          URL http://www.quantum-espresso.org", 
     in publications or presentations arising from this work. More details at
     http://www.quantum-espresso.org/quote

     Parallel version (MPI), running on     6 processors

     MPI processes distributed on     1 nodes
     3423 MiB available memory on the printing compute node when the environment starts

     Reading input from conv/k664.in
Warning: card &CELL ignored
Warning: card   CELL_DYNAMICS  = 'BFGS' ignored
Warning: card   PRESS          = 0.0 ignored
Warning: card   PRESS_CONV_THR = 0.5 ignored
Warning: card   CELL_DOFREE    = 'ALL' ignored

     Current dimensions of program PWSCF are:
     Max number of different atomic species (ntypx) = 10
     Max number of k-points (npk) =  40000
     Max angular momentum in pseudopotentials (lmaxx) =  4
     file Pb.pbesol-dn-kjpaw_psl.0.2.2.UPF: wavefunction(s)  6S renormalized
     Message from routine setup:
     using ibrav=0 with symmetry is DISCOURAGED, use correct ibrav instead

     R & G space division:  proc/nbgrp/npool/nimage =       6
     Subspace diagonalization in iterative solution of the eigenvalue problem:
     a serial algorithm will be used


     Parallelization info
     --------------------
     sticks:   dense  smooth     PW     G-vecs:    dense   smooth      PW
     Min        1441     720    195               143941    50894    7199
     Max        1442     721    196               143944    50897    7202
     Sum        8649    4323   1173               863659   305373   43207

     Using Slab Decomposition



     bravais-lattice index     =            0
     lattice parameter (alat)  =      16.2074  a.u.
     unit-cell volume          =    6392.8915 (a.u.)^3
     number of atoms/cell      =           20
     number of atomic types    =            3
     number of electrons       =       176.00
     number of Kohn-Sham states=           88
     kinetic-energy cutoff     =      50.0000  Ry
     charge density cutoff     =     400.0000  Ry
     scf convergence threshold =      1.0E-07
     mixing beta               =       0.5000
     number of iterations used =            8  plain     mixing
     Exchange-correlation= SLA  PW   PSX  PSC
                           (   1   4  10   8   0   0   0)

     celldm(1)=  16.207425  celldm(2)=   0.000000  celldm(3)=   0.000000
     celldm(4)=   0.000000  celldm(5)=   0.000000  celldm(6)=   0.000000

     crystal axes: (cart. coord. in units of alat)
               a(1) = (   1.000000   0.000000   0.000000 )  
               a(2) = (   0.000000   1.032589   0.000000 )  
               a(3) = (   0.000000   0.000000   1.454213 )  

     reciprocal axes: (cart. coord. in units 2 pi/alat)
               b(1) = (  1.000000  0.000000  0.000000 )  
               b(2) = (  0.000000  0.968440  0.000000 )  
               b(3) = (  0.000000  0.000000  0.687657 )  


     PseudoPot. # 1 for Cs read from file:
     /home/duydao/pseudo_pbesol/cs_pbesol_v1.uspp.F.UPF
     MD5 check sum: ae4559e5c840913b791237f814e2d884
     Pseudo is Ultrasoft + core correction, Zval =  9.0
     Generated by new atomic code, or converted to UPF format
     Using radial grid of  905 points,  6 beta functions with: 
                l(1) =   0
                l(2) =   0
                l(3) =   1
                l(4) =   1
                l(5) =   2
                l(6) =   2
     Q(r) pseudized with  6 coefficients,  rinner =    1.500   1.500   1.500
                                                       1.500   1.500

     PseudoPot. # 2 for Pb read from file:
     /home/duydao/pseudo_pbesol/Pb.pbesol-dn-kjpaw_psl.0.2.2.UPF
     MD5 check sum: df0e0ac60519e244e20a4bf230ae894d
     Pseudo is Projector augmented-wave + core cor, Zval = 14.0
     Generated using "atomic" code by A. Dal Corso  v.6.0 svn rev. 13079
     Shape of augmentation charge: PSQ
     Using radial grid of 1281 points,  6 beta functions with: 
                l(1) =   0
                l(2) =   0
                l(3) =   1
                l(4) =   1
                l(5) =   2
                l(6) =   2
     Q(r) pseudized with 0 coefficients 


     PseudoPot. # 3 for I  read from file:
     /home/duydao/pseudo_pbesol/I.pbesol-n-kjpaw_psl.0.2.UPF
     MD5 check sum: cecf1a22a184a0b1ae701638a037a48d
     Pseudo is Projector augmented-wave + core cor, Zval =  7.0
     Generated using "atomic" code by A. Dal Corso  v.6.0 svn rev. 13079
     Shape of augmentation charge: PSQ
     Using radial grid of 1247 points,  4 beta functions with: 
                l(1) =   0
                l(2) =   0
                l(3) =   1
                l(4) =   1
     Q(r) pseudized with 0 coefficients 


     atomic species   valence    mass     pseudopotential
     Cs                9.00   132.90500     Cs( 1.00)
     Pb               14.00   207.20000     Pb( 1.00)
     I                 7.00   126.90400     I ( 1.00)

      8 Sym. Ops., with inversion, found ( 6 have fractional translation)



   Cartesian axes

     site n.     atom                  positions (alat units)
         1        Cs     tau(   1) = (   0.5050900   0.4749392   0.3635532  )
         2        Cs     tau(   2) = (   0.4949100   0.5576495   1.0906595  )
         3        Cs     tau(   3) = (   0.0050900   0.0413552   1.0906595  )
         4        Cs     tau(   4) = (   0.9949100   0.9912335   0.3635532  )
         5        Pb     tau(   5) = (   0.5000000   0.0000000   0.0000000  )
         6        Pb     tau(   6) = (   0.5000000   0.0000000   0.7271063  )
         7        Pb     tau(   7) = (   0.0000000   0.5162943   0.0000000  )
         8        Pb     tau(   8) = (   0.0000000   0.5162943   0.7271063  )
         9        I      tau(   9) = (   0.5620200   0.0011668   0.3635532  )
        10        I      tau(  10) = (   0.4379800   1.0314218   1.0906595  )
        11        I      tau(  11) = (   0.0620200   0.5151275   1.0906595  )
        12        I      tau(  12) = (   0.9379800   0.5174612   0.3635532  )
        13        I      tau(  13) = (   0.6973100   0.3153319   1.4021954  )
        14        I      tau(  14) = (   0.3026900   0.7172567   0.6750891  )
        15        I      tau(  15) = (   0.1973100   0.2009624   0.0520172  )
        16        I      tau(  16) = (   0.8026900   0.8316263   0.7791235  )
        17        I      tau(  17) = (   0.3026900   0.7172567   0.0520172  )
        18        I      tau(  18) = (   0.6973100   0.3153319   0.7791235  )
        19        I      tau(  19) = (   0.8026900   0.8316263   1.4021954  )
        20        I      tau(  20) = (   0.1973100   0.2009624   0.6750891  )

     number of k points=    48
                       cart. coord. in units 2pi/alat
        k(    1) = (   0.0000000   0.0000000   0.0000000), wk =   0.0138889
        k(    2) = (   0.0000000   0.0000000   0.1719143), wk =   0.0277778
        k(    3) = (   0.0000000   0.0000000  -0.3438287), wk =   0.0138889
        k(    4) = (   0.0000000   0.1614066   0.0000000), wk =   0.0277778
        k(    5) = (   0.0000000   0.1614066   0.1719143), wk =   0.0555556
        k(    6) = (   0.0000000   0.1614066  -0.3438287), wk =   0.0277778
        k(    7) = (   0.0000000   0.3228133   0.0000000), wk =   0.0277778
        k(    8) = (   0.0000000   0.3228133   0.1719143), wk =   0.0555556
        k(    9) = (   0.0000000   0.3228133  -0.3438287), wk =   0.0277778
        k(   10) = (   0.0000000  -0.4842199   0.0000000), wk =   0.0138889
        k(   11) = (   0.0000000  -0.4842199   0.1719143), wk =   0.0277778
        k(   12) = (   0.0000000  -0.4842199  -0.3438287), wk =   0.0138889
        k(   13) = (   0.1666667   0.0000000   0.0000000), wk =   0.0277778
        k(   14) = (   0.1666667   0.0000000   0.1719143), wk =   0.0555556
        k(   15) = (   0.1666667   0.0000000  -0.3438287), wk =   0.0277778
        k(   16) = (   0.1666667   0.1614066   0.0000000), wk =   0.0555556
        k(   17) = (   0.1666667   0.1614066   0.1719143), wk =   0.1111111
        k(   18) = (   0.1666667   0.1614066  -0.3438287), wk =   0.0555556
        k(   19) = (   0.1666667   0.3228133   0.0000000), wk =   0.0555556
        k(   20) = (   0.1666667   0.3228133   0.1719143), wk =   0.1111111
        k(   21) = (   0.1666667   0.3228133  -0.3438287), wk =   0.0555556
        k(   22) = (   0.1666667  -0.4842199   0.0000000), wk =   0.0277778
        k(   23) = (   0.1666667  -0.4842199   0.1719143), wk =   0.0555556
        k(   24) = (   0.1666667  -0.4842199  -0.3438287), wk =   0.0277778
        k(   25) = (   0.3333333   0.0000000   0.0000000), wk =   0.0277778
        k(   26) = (   0.3333333   0.0000000   0.1719143), wk =   0.0555556
        k(   27) = (   0.3333333   0.0000000  -0.3438287), wk =   0.0277778
        k(   28) = (   0.3333333   0.1614066   0.0000000), wk =   0.0555556
        k(   29) = (   0.3333333   0.1614066   0.1719143), wk =   0.1111111
        k(   30) = (   0.3333333   0.1614066  -0.3438287), wk =   0.0555556
        k(   31) = (   0.3333333   0.3228133   0.0000000), wk =   0.0555556
        k(   32) = (   0.3333333   0.3228133   0.1719143), wk =   0.1111111
        k(   33) = (   0.3333333   0.3228133  -0.3438287), wk =   0.0555556
        k(   34) = (   0.3333333  -0.4842199   0.0000000), wk =   0.0277778
        k(   35) = (   0.3333333  -0.4842199   0.1719143), wk =   0.0555556
        k(   36) = (   0.3333333  -0.4842199  -0.3438287), wk =   0.0277778
        k(   37) = (  -0.5000000   0.0000000   0.0000000), wk =   0.0138889
        k(   38) = (  -0.5000000   0.0000000   0.1719143), wk =   0.0277778
        k(   39) = (  -0.5000000   0.0000000  -0.3438287), wk =   0.0138889
        k(   40) = (  -0.5000000   0.1614066   0.0000000), wk =   0.0277778
        k(   41) = (  -0.5000000   0.1614066   0.1719143), wk =   0.0555556
        k(   42) = (  -0.5000000   0.1614066  -0.3438287), wk =   0.0277778
        k(   43) = (  -0.5000000   0.3228133   0.0000000), wk =   0.0277778
        k(   44) = (  -0.5000000   0.3228133   0.1719143), wk =   0.0555556
        k(   45) = (  -0.5000000   0.3228133  -0.3438287), wk =   0.0277778
        k(   46) = (  -0.5000000  -0.4842199   0.0000000), wk =   0.0138889
        k(   47) = (  -0.5000000  -0.4842199   0.1719143), wk =   0.0277778
        k(   48) = (  -0.5000000  -0.4842199  -0.3438287), wk =   0.0138889

     Dense  grid:   863659 G-vectors     FFT dimensions: ( 108, 108, 160)

     Smooth grid:   305373 G-vectors     FFT dimensions: (  80,  80, 108)

     Estimated max dynamical RAM per process >    1020.54 MB

     Estimated total dynamical RAM >       5.98 GB

     Initial potential from superposition of free atoms

     starting charge     175.8397, renormalised to     176.0000
     Starting wfcs are  136 randomized atomic wfcs
     Checking if some PAW data can be deallocated... 

     total cpu time spent up to now is      204.8 secs

     Self-consistent Calculation

     iteration #  1     ecut=    50.00 Ry     beta= 0.50
     Davidson diagonalization with overlap
     ethr =  1.00E-02,  avg # of iterations =  1.7

     Threshold (ethr) on eigenvalues was too large:
     Diagonalizing with lowered threshold

     Davidson diagonalization with overlap
     ethr =  2.27E-04,  avg # of iterations =  4.9

     total cpu time spent up to now is      989.4 secs

     total energy              =   -8165.73728755 Ry
     estimated scf accuracy    <       0.34972567 Ry

     iteration #  2     ecut=    50.00 Ry     beta= 0.50
     Davidson diagonalization with overlap
     ethr =  1.99E-04,  avg # of iterations =  3.3

     total cpu time spent up to now is     1439.6 secs

     total energy              =   -8165.83261074 Ry
     estimated scf accuracy    <       0.01459825 Ry

     iteration #  3     ecut=    50.00 Ry     beta= 0.50
     Davidson diagonalization with overlap
     ethr =  8.29E-06,  avg # of iterations =  4.9

     total cpu time spent up to now is     2035.8 secs

     total energy              =   -8165.84295321 Ry
     estimated scf accuracy    <       0.00549328 Ry

     iteration #  4     ecut=    50.00 Ry     beta= 0.50
     Davidson diagonalization with overlap
     ethr =  3.12E-06,  avg # of iterations =  2.6

     total cpu time spent up to now is     2501.7 secs

     total energy              =   -8165.84406079 Ry
     estimated scf accuracy    <       0.00059700 Ry

     iteration #  5     ecut=    50.00 Ry     beta= 0.50
     Davidson diagonalization with overlap
     ethr =  3.39E-07,  avg # of iterations =  4.3

     total cpu time spent up to now is     3060.7 secs

     total energy              =   -8165.84418854 Ry
     estimated scf accuracy    <       0.00033685 Ry

     iteration #  6     ecut=    50.00 Ry     beta= 0.50
     Davidson diagonalization with overlap
     ethr =  1.91E-07,  avg # of iterations =  1.4

     total cpu time spent up to now is     3395.6 secs

     total energy              =   -8165.84412402 Ry
     estimated scf accuracy    <       0.00019832 Ry

     iteration #  7     ecut=    50.00 Ry     beta= 0.50
     Davidson diagonalization with overlap
     ethr =  1.13E-07,  avg # of iterations =  4.0

     total cpu time spent up to now is     3945.5 secs

     total energy              =   -8165.84418074 Ry
     estimated scf accuracy    <       0.00004347 Ry

     iteration #  8     ecut=    50.00 Ry     beta= 0.50
     Davidson diagonalization with overlap
     ethr =  2.47E-08,  avg # of iterations =  2.1

     total cpu time spent up to now is     4308.7 secs

     total energy              =   -8165.84417537 Ry
     estimated scf accuracy    <       0.00001941 Ry

     iteration #  9     ecut=    50.00 Ry     beta= 0.50
     Davidson diagonalization with overlap
     ethr =  1.10E-08,  avg # of iterations =  4.2

     total cpu time spent up to now is     4822.8 secs

     total energy              =   -8165.84418079 Ry
     estimated scf accuracy    <       0.00000650 Ry

     iteration # 10     ecut=    50.00 Ry     beta= 0.50
     Davidson diagonalization with overlap
     ethr =  3.69E-09,  avg # of iterations =  2.2

     total cpu time spent up to now is     5180.5 secs

     total energy              =   -8165.84418029 Ry
     estimated scf accuracy    <       0.00000287 Ry

     iteration # 11     ecut=    50.00 Ry     beta= 0.50
     Davidson diagonalization with overlap
     ethr =  1.63E-09,  avg # of iterations =  4.1

     total cpu time spent up to now is     5622.5 secs

     total energy              =   -8165.84418069 Ry
     estimated scf accuracy    <       0.00000011 Ry

     iteration # 12     ecut=    50.00 Ry     beta= 0.50
     Davidson diagonalization with overlap
     ethr =  6.20E-11,  avg # of iterations =  8.4

     total cpu time spent up to now is     6837.8 secs

     total energy              =   -8165.84418095 Ry
     estimated scf accuracy    <       0.00000012 Ry

     iteration # 13     ecut=    50.00 Ry     beta= 0.50
     Davidson diagonalization with overlap
     ethr =  6.20E-11,  avg # of iterations =  1.0

     total cpu time spent up to now is     7155.9 secs

     End of self-consistent calculation

          k = 0.0000 0.0000 0.0000 ( 38185 PWs)   bands (ev):

   -17.5558 -17.5552 -17.5546 -17.5540 -13.2626 -13.2561 -13.2527 -13.2526
   -13.2481 -13.2412 -13.2326 -13.2325 -13.2033 -13.2033 -13.2027 -13.2027
   -13.1978 -13.1976 -13.1972 -13.1970 -13.1932 -13.1929 -13.1927 -13.1925
    -8.9437  -8.7240  -8.5298  -8.4774  -8.4678  -8.4051  -8.4010  -8.3897
    -8.3848  -8.2165  -8.1869  -8.1839  -5.1563  -4.6277  -4.4027  -4.4003
    -4.3928  -4.3809  -4.3796  -4.3774  -4.3712  -4.3708  -4.3707  -4.3615
    -4.3437  -4.3402  -4.1173  -3.6221  -0.2159  -0.1281  -0.1047  -0.0248
     0.0257   0.0379   0.9986   1.2380   1.2494   1.2550   1.2669   1.3829
     1.5640   1.7352   1.7630   1.7720   1.8226   1.8248   1.8786   1.9298
     1.9305   1.9305   1.9879   2.0184   2.0351   2.1583   2.2284   2.2444
     2.2505   2.2528   2.3325   2.4046   2.5007   2.5548   2.8159   3.2825

          k = 0.0000 0.0000 0.1719 ( 38165 PWs)   bands (ev):

   -17.5557 -17.5553 -17.5545 -17.5541 -13.2604 -13.2541 -13.2527 -13.2525
   -13.2502 -13.2433 -13.2326 -13.2325 -13.2032 -13.2032 -13.2028 -13.2028
   -13.1978 -13.1976 -13.1972 -13.1970 -13.1931 -13.1929 -13.1927 -13.1925
    -8.9226  -8.7779  -8.5211  -8.4770  -8.4182  -8.4035  -8.3977  -8.3924
    -8.3873  -8.2434  -8.1862  -8.1841  -5.0848  -4.7091  -4.4012  -4.3966
    -4.3959  -4.3779  -4.3745  -4.3703  -4.3698  -4.3687  -4.3656  -4.3629
    -4.3527  -4.3492  -4.0717  -3.7212  -0.1128  -0.0908  -0.0569  -0.0330
     0.0839   0.2553   1.0301   1.1076   1.1953   1.2702   1.2861   1.3559
     1.4919   1.5341   1.6962   1.7623   1.8132   1.8488   1.8854   1.9290
     1.9836   1.9839   2.0100   2.0122   2.0190   2.1465   2.1564   2.1858
     2.2373   2.2377   2.3233   2.3613   2.4759   2.4831   2.8314   3.0659

          k = 0.0000 0.0000-0.3438 ( 38134 PWs)   bands (ev):

   -17.5555 -17.5555 -17.5543 -17.5543 -13.2553 -13.2553 -13.2528 -13.2528
   -13.2485 -13.2485 -13.2326 -13.2326 -13.2030 -13.2030 -13.2030 -13.2030
   -13.1977 -13.1977 -13.1971 -13.1971 -13.1930 -13.1930 -13.1926 -13.1926
    -8.8624  -8.8624  -8.4993  -8.4993  -8.3984  -8.3984  -8.3933  -8.3933
    -8.3176  -8.3176  -8.1850  -8.1850  -4.9032  -4.9032  -4.3981  -4.3981
    -4.3861  -4.3861  -4.3716  -4.3716  -4.3638  -4.3638  -4.3609  -4.3609
    -4.3585  -4.3585  -3.9212  -3.9212  -0.0739  -0.0739  -0.0573  -0.0573
     0.6008   0.6008   0.8318   0.8318   1.1107   1.1107   1.3288   1.3288
     1.3765   1.3765   1.7334   1.7334   1.8240   1.8240   1.9385   1.9385
     1.9507   1.9507   1.9923   1.9923   2.1580   2.1580   2.1707   2.1707
     2.2440   2.2440   2.2466   2.2466   2.4521   2.4521   2.8929   2.8929

          k = 0.0000 0.1614 0.0000 ( 38154 PWs)   bands (ev):

   -17.5557 -17.5551 -17.5546 -17.5541 -13.2621 -13.2565 -13.2514 -13.2513
   -13.2477 -13.2416 -13.2339 -13.2339 -13.2033 -13.2033 -13.2027 -13.2027
   -13.1977 -13.1976 -13.1973 -13.1970 -13.1932 -13.1929 -13.1927 -13.1925
    -8.9260  -8.7049  -8.5927  -8.4769  -8.4667  -8.4165  -8.3872  -8.3718
    -8.3608  -8.2205  -8.2001  -8.1990  -5.0962  -4.5826  -4.4059  -4.4028
    -4.3967  -4.3902  -4.3787  -4.3731  -4.3691  -4.3690  -4.3652  -4.3627
    -4.3451  -4.3283  -4.1784  -3.7023  -0.1958  -0.0516  -0.0023   0.0177
     0.0786   0.1333   1.0364   1.1876   1.2375   1.2744   1.2764   1.3413
     1.3943   1.6184   1.6961   1.7049   1.8231   1.8296   1.8606   1.9088
     1.9224   1.9608   1.9934   2.0317   2.0538   2.1419   2.1565   2.1815
     2.2375   2.2472   2.3493   2.3775   2.5105   2.5715   2.6681   3.1099

          k = 0.0000 0.1614 0.1719 ( 38169 PWs)   bands (ev):

   -17.5556 -17.5552 -17.5546 -17.5542 -13.2600 -13.2544 -13.2514 -13.2513
   -13.2498 -13.2438 -13.2339 -13.2339 -13.2032 -13.2032 -13.2028 -13.2028
   -13.1977 -13.1976 -13.1972 -13.1971 -13.1931 -13.1929 -13.1927 -13.1925
    -8.9049  -8.7601  -8.5798  -8.4981  -8.4169  -8.3958  -8.3845  -8.3741
    -8.3638  -8.2465  -8.2000  -8.1991  -5.0262  -4.6594  -4.4021  -4.3964
    -4.3933  -4.3809  -4.3778  -4.3749  -4.3680  -4.3678  -4.3611  -4.3609
    -4.3505  -4.3448  -4.1389  -3.7992  -0.0354  -0.0207   0.0480   0.0563
     0.1472   0.2346   1.0619   1.1089   1.1761   1.2786   1.2912   1.3461
     1.3561   1.4738   1.6147   1.6621   1.7262   1.8405   1.8614   1.8720
     1.9625   1.9881   2.0198   2.0399   2.0463   2.1031   2.1662   2.1694
     2.2109   2.2342   2.3292   2.3471   2.4880   2.4958   2.6794   2.8982

          k = 0.0000 0.1614-0.3438 ( 38108 PWs)   bands (ev):

   -17.5554 -17.5554 -17.5544 -17.5544 -13.2549 -13.2549 -13.2515 -13.2515
   -13.2489 -13.2489 -13.2339 -13.2339 -13.2030 -13.2030 -13.2030 -13.2030
   -13.1977 -13.1977 -13.1972 -13.1972 -13.1930 -13.1930 -13.1926 -13.1926
    -8.8449  -8.8449  -8.5447  -8.5447  -8.3800  -8.3800  -8.3745  -8.3745
    -8.3184  -8.3184  -8.1996  -8.1996  -4.8482  -4.8482  -4.3975  -4.3975
    -4.3845  -4.3845  -4.3710  -4.3710  -4.3640  -4.3640  -4.3598  -4.3598
    -4.3578  -4.3578  -3.9951  -3.9951   0.0056   0.0056   0.0535   0.0535
     0.6190   0.6190   0.8004   0.8004   1.1236   1.1236   1.3381   1.3381
     1.3409   1.3409   1.6270   1.6270   1.7041   1.7041   1.8701   1.8701
     1.9494   1.9494   2.0262   2.0262   2.1698   2.1698   2.1701   2.1701
     2.2442   2.2442   2.2467   2.2467   2.4660   2.4660   2.7305   2.7305

          k = 0.0000 0.3228 0.0000 ( 38192 PWs)   bands (ev):

   -17.5555 -17.5549 -17.5549 -17.5543 -13.2609 -13.2577 -13.2478 -13.2477
   -13.2464 -13.2428 -13.2376 -13.2376 -13.2033 -13.2033 -13.2027 -13.2027
   -13.1976 -13.1975 -13.1974 -13.1972 -13.1931 -13.1928 -13.1928 -13.1926
    -8.8744  -8.6953  -8.6508  -8.4855  -8.4755  -8.4693  -8.3491  -8.3360
    -8.3025  -8.2396  -8.2365  -8.2335  -4.9319  -4.4997  -4.4753  -4.4028
    -4.3890  -4.3850  -4.3769  -4.3710  -4.3669  -4.3660  -4.3639  -4.3563
    -4.3506  -4.2898  -4.2783  -3.9004  -0.1555  -0.0454   0.1683   0.3112
     0.3268   0.4350   0.9489   0.9992   1.1571   1.1708   1.1970   1.2545
     1.3317   1.4290   1.5447   1.5695   1.8067   1.8599   1.8912   1.8928
     1.9255   1.9332   1.9878   2.0213   2.0460   2.0659   2.1068   2.1591
     2.2092   2.2152   2.3197   2.3298   2.4587   2.4857   2.6036   2.8384

          k = 0.0000 0.3228 0.1719 ( 38198 PWs)   bands (ev):

   -17.5554 -17.5550 -17.5548 -17.5544 -13.2588 -13.2555 -13.2485 -13.2479
   -13.2477 -13.2449 -13.2376 -13.2376 -13.2032 -13.2032 -13.2028 -13.2028
   -13.1976 -13.1975 -13.1973 -13.1972 -13.1930 -13.1929 -13.1928 -13.1926
    -8.8537  -8.7098  -8.6782  -8.5585  -8.4138  -8.4023  -8.3471  -8.3379
    -8.3128  -8.2566  -8.2397  -8.2373  -4.8654  -4.5289  -4.4546  -4.3999
    -4.3878  -4.3851  -4.3771  -4.3737  -4.3675  -4.3642  -4.3587  -4.3564
    -4.3544  -4.3149  -4.2767  -3.9923   0.0522   0.1714   0.1880   0.2913
     0.3592   0.4099   0.9760   1.0234   1.1023   1.1277   1.1342   1.1958
     1.3984   1.4078   1.4813   1.5843   1.7102   1.7778   1.8452   1.8488
     1.8708   1.8947   1.9114   1.9414   2.1141   2.1143   2.1850   2.1853
     2.2057   2.2198   2.3119   2.3129   2.4664   2.4735   2.5003   2.6428

          k = 0.0000 0.3228-0.3438 ( 38222 PWs)   bands (ev):

   -17.5552 -17.5552 -17.5546 -17.5546 -13.2537 -13.2537 -13.2504 -13.2504
   -13.2476 -13.2476 -13.2376 -13.2376 -13.2030 -13.2030 -13.2030 -13.2030
   -13.1975 -13.1975 -13.1973 -13.1973 -13.1930 -13.1930 -13.1927 -13.1927
    -8.7947  -8.7947  -8.6297  -8.6297  -8.3459  -8.3459  -8.3435  -8.3435
    -8.3211  -8.3211  -8.2389  -8.2389  -4.6968  -4.6968  -4.4020  -4.4020
    -4.3836  -4.3836  -4.3745  -4.3745  -4.3670  -4.3670  -4.3588  -4.3588
    -4.3474  -4.3474  -4.1747  -4.1747   0.2329   0.2329   0.3246   0.3246
     0.6811   0.6811   0.7201   0.7201   1.0472   1.0472   1.0779   1.0779
     1.4342   1.4342   1.5452   1.5452   1.6462   1.6462   1.7264   1.7264
     1.8702   1.8702   1.9123   1.9123   2.1989   2.1989   2.2073   2.2073
     2.2451   2.2451   2.2525   2.2525   2.4575   2.4575   2.4981   2.4981

          k = 0.0000-0.4842 0.0000 ( 38174 PWs)   bands (ev):

   -17.5552 -17.5552 -17.5546 -17.5546 -13.2593 -13.2593 -13.2448 -13.2448
   -13.2427 -13.2427 -13.2425 -13.2425 -13.2033 -13.2033 -13.2027 -13.2027
   -13.1975 -13.1975 -13.1973 -13.1973 -13.1930 -13.1930 -13.1927 -13.1927
    -8.7944  -8.7944  -8.5718  -8.5718  -8.4728  -8.4728  -8.2966  -8.2966
    -8.2865  -8.2865  -8.2581  -8.2581  -4.7074  -4.7074  -4.4103  -4.4103
    -4.3817  -4.3817  -4.3727  -4.3727  -4.3672  -4.3672  -4.3599  -4.3599
    -4.3391  -4.3391  -4.1267  -4.1267  -0.1035  -0.1035   0.4830   0.4830
     0.6504   0.6504   0.7576   0.7576   0.9168   0.9168   1.1720   1.1720
     1.4288   1.4288   1.5970   1.5970   1.6928   1.6928   1.8865   1.8865
     1.9307   1.9307   2.0012   2.0012   2.0323   2.0323   2.1665   2.1665
     2.1849   2.1849   2.3000   2.3000   2.4326   2.4326   2.6738   2.6738

          k = 0.0000-0.4842 0.1719 ( 38186 PWs)   bands (ev):

   -17.5551 -17.5551 -17.5547 -17.5547 -13.2572 -13.2572 -13.2469 -13.2469
   -13.2427 -13.2427 -13.2426 -13.2426 -13.2032 -13.2032 -13.2028 -13.2028
   -13.1975 -13.1975 -13.1973 -13.1973 -13.1929 -13.1929 -13.1927 -13.1927
    -8.7748  -8.7748  -8.6368  -8.6368  -8.4088  -8.4088  -8.2953  -8.2953
    -8.2879  -8.2879  -8.2762  -8.2762  -4.6453  -4.6453  -4.4160  -4.4160
    -4.3832  -4.3832  -4.3751  -4.3751  -4.3680  -4.3680  -4.3601  -4.3601
    -4.3380  -4.3380  -4.2059  -4.2059   0.1121   0.1121   0.5036   0.5036
     0.6151   0.6151   0.7921   0.7921   0.8655   0.8655   1.1350   1.1350
     1.4723   1.4723   1.5811   1.5811   1.6710   1.6710   1.8105   1.8105
     1.8216   1.8216   1.8470   1.8470   2.1304   2.1304   2.1969   2.1969
     2.2267   2.2267   2.2909   2.2909   2.4321   2.4321   2.5259   2.5259

          k = 0.0000-0.4842-0.3438 ( 38172 PWs)   bands (ev):

   -17.5549 -17.5549 -17.5549 -17.5549 -13.2520 -13.2520 -13.2520 -13.2520
   -13.2427 -13.2427 -13.2427 -13.2427 -13.2030 -13.2030 -13.2030 -13.2030
   -13.1974 -13.1974 -13.1974 -13.1974 -13.1928 -13.1928 -13.1928 -13.1928
    -8.7189  -8.7189  -8.7189  -8.7189  -8.3296  -8.3296  -8.3296  -8.3296
    -8.2913  -8.2913  -8.2913  -8.2913  -4.4979  -4.4979  -4.4979  -4.4979
    -4.3834  -4.3834  -4.3834  -4.3834  -4.3624  -4.3624  -4.3624  -4.3624
    -4.3149  -4.3149  -4.3149  -4.3149   0.5225   0.5225   0.5225   0.5225
     0.6410   0.6410   0.6410   0.6410   0.8978   0.8978   0.8978   0.8978
     1.5891   1.5891   1.5891   1.5891   1.6128   1.6128   1.6128   1.6128
     1.7734   1.7734   1.7734   1.7734   2.2191   2.2191   2.2191   2.2191
     2.2534   2.2534   2.2534   2.2534   2.4390   2.4390   2.4390   2.4390

          k = 0.1667 0.0000 0.0000 ( 38155 PWs)   bands (ev):

   -17.5557 -17.5551 -17.5546 -17.5541 -13.2621 -13.2565 -13.2514 -13.2513
   -13.2477 -13.2416 -13.2339 -13.2339 -13.2033 -13.2033 -13.2027 -13.2027
   -13.1977 -13.1976 -13.1973 -13.1970 -13.1932 -13.1929 -13.1927 -13.1925
    -8.9264  -8.7044  -8.5930  -8.4772  -8.4684  -8.4116  -8.3924  -8.3765
    -8.3553  -8.2191  -8.2008  -8.1988  -5.0966  -4.5857  -4.3994  -4.3977
    -4.3974  -4.3893  -4.3819  -4.3798  -4.3717  -4.3712  -4.3639  -4.3575
    -4.3540  -4.3149  -4.1778  -3.7022  -0.1987  -0.0331  -0.0014  -0.0007
     0.0977   0.1195   1.0341   1.1506   1.2042   1.2675   1.2746   1.2874
     1.5041   1.5558   1.7012   1.7666   1.8216   1.8430   1.8718   1.8748
     1.9228   2.0132   2.0303   2.0385   2.0542   2.1084   2.1427   2.2145
     2.2420   2.2515   2.3642   2.3891   2.4701   2.5609   2.6578   3.0679

          k = 0.1667 0.0000 0.1719 ( 38166 PWs)   bands (ev):

   -17.5556 -17.5552 -17.5546 -17.5542 -13.2600 -13.2544 -13.2514 -13.2513
   -13.2498 -13.2438 -13.2339 -13.2339 -13.2032 -13.2032 -13.2028 -13.2028
   -13.1977 -13.1976 -13.1972 -13.1971 -13.1931 -13.1929 -13.1927 -13.1925
    -8.9052  -8.7600  -8.5799  -8.4981  -8.4175  -8.3963  -8.3866  -8.3788
    -8.3578  -8.2451  -8.2003  -8.1989  -5.0269  -4.6622  -4.4004  -4.3970
    -4.3915  -4.3813  -4.3736  -4.3735  -4.3711  -4.3688  -4.3645  -4.3583
    -4.3573  -4.3327  -4.1384  -3.7990  -0.0337  -0.0180   0.0343   0.0889
     0.1261   0.2335   1.0558   1.0952   1.1446   1.2528   1.2732   1.2954
     1.4732   1.4795   1.5474   1.6356   1.8155   1.8322   1.9004   1.9050
     1.9627   1.9892   2.0220   2.0647   2.0726   2.1162   2.1270   2.1574
     2.2293   2.2427   2.3468   2.3485   2.4535   2.4796   2.6638   2.8499

          k = 0.1667 0.0000-0.3438 ( 38132 PWs)   bands (ev):

   -17.5554 -17.5554 -17.5544 -17.5544 -13.2549 -13.2549 -13.2515 -13.2515
   -13.2489 -13.2489 -13.2339 -13.2339 -13.2030 -13.2030 -13.2030 -13.2030
   -13.1977 -13.1977 -13.1972 -13.1972 -13.1930 -13.1930 -13.1926 -13.1926
    -8.8451  -8.8451  -8.5445  -8.5445  -8.3869  -8.3869  -8.3701  -8.3701
    -8.3166  -8.3166  -8.1993  -8.1993  -4.8499  -4.8499  -4.3960  -4.3960
    -4.3885  -4.3885  -4.3672  -4.3672  -4.3655  -4.3655  -4.3580  -4.3580
    -4.3551  -4.3551  -3.9948  -3.9948   0.0179   0.0179   0.0441   0.0441
     0.6107   0.6107   0.7961   0.7961   1.1205   1.1205   1.2761   1.2761
     1.3945   1.3945   1.5545   1.5545   1.8190   1.8190   1.8798   1.8798
     1.9565   1.9565   2.0639   2.0639   2.1011   2.1011   2.2142   2.2142
     2.2353   2.2353   2.2535   2.2535   2.4421   2.4421   2.6978   2.6978

          k = 0.1667 0.1614 0.0000 ( 38165 PWs)   bands (ev):

   -17.5557 -17.5550 -17.5547 -17.5541 -13.2619 -13.2570 -13.2508 -13.2500
   -13.2467 -13.2423 -13.2350 -13.2348 -13.2033 -13.2033 -13.2027 -13.2027
   -13.1977 -13.1975 -13.1973 -13.1971 -13.1931 -13.1929 -13.1928 -13.1925
    -8.9094  -8.6856  -8.6234  -8.4776  -8.4692  -8.4053  -8.4051  -8.3954
    -8.3148  -8.2387  -8.2151  -8.1971  -5.0420  -4.5480  -4.4246  -4.3976
    -4.3943  -4.3868  -4.3802  -4.3754  -4.3702  -4.3692  -4.3614  -4.3599
    -4.3519  -4.3024  -4.2207  -3.7634  -0.1874  -0.0929  -0.0266   0.0563
     0.2268   0.3424   1.0103   1.0756   1.1588   1.2159   1.3025   1.3109
     1.3188   1.5254   1.6759   1.7756   1.7888   1.8549   1.8960   1.8979
     1.9231   1.9566   2.0098   2.0533   2.0749   2.0910   2.1306   2.1748
     2.2201   2.2259   2.3427   2.3673   2.4766   2.5729   2.6134   3.0214

          k = 0.1667 0.1614 0.1719 ( 38174 PWs)   bands (ev):

   -17.5556 -17.5551 -17.5546 -17.5542 -13.2598 -13.2548 -13.2513 -13.2499
   -13.2483 -13.2444 -13.2350 -13.2349 -13.2032 -13.2032 -13.2028 -13.2028
   -13.1977 -13.1976 -13.1973 -13.1971 -13.1931 -13.1929 -13.1927 -13.1926
    -8.8883  -8.7426  -8.6083  -8.5095  -8.4192  -8.4041  -8.3965  -8.3722
    -8.3204  -8.2562  -8.2144  -8.2051  -4.9737  -4.6189  -4.4078  -4.3962
    -4.3889  -4.3833  -4.3787  -4.3728  -4.3692  -4.3663  -4.3619  -4.3577
    -4.3554  -4.3258  -4.1878  -3.8586  -0.0767  -0.0204   0.0622   0.2166
     0.2582   0.3206   1.0384   1.0861   1.0953   1.1818   1.2232   1.3003
     1.3221   1.4755   1.6067   1.6540   1.7448   1.8185   1.8383   1.8702
     1.9231   1.9829   2.0475   2.0607   2.0856   2.1029   2.1433   2.1655
     2.2022   2.2242   2.3230   2.3457   2.4583   2.4814   2.6161   2.8089

          k = 0.1667 0.1614-0.3438 ( 38130 PWs)   bands (ev):

   -17.5553 -17.5553 -17.5544 -17.5544 -13.2549 -13.2549 -13.2503 -13.2503
   -13.2491 -13.2491 -13.2350 -13.2350 -13.2030 -13.2030 -13.2030 -13.2030
   -13.1976 -13.1976 -13.1972 -13.1972 -13.1930 -13.1930 -13.1927 -13.1927
    -8.8282  -8.8282  -8.5666  -8.5666  -8.4025  -8.4025  -8.3404  -8.3404
    -8.3188  -8.3188  -8.2120  -8.2120  -4.8004  -4.8004  -4.3959  -4.3959
    -4.3871  -4.3871  -4.3670  -4.3670  -4.3639  -4.3639  -4.3604  -4.3604
    -4.3520  -4.3520  -4.0513  -4.0513  -0.0363  -0.0363   0.2553   0.2553
     0.6322   0.6322   0.7680   0.7680   1.1012   1.1012   1.1866   1.1866
     1.3837   1.3837   1.5765   1.5765   1.7252   1.7252   1.8333   1.8333
     1.9531   1.9531   2.0318   2.0318   2.1421   2.1421   2.2104   2.2104
     2.2357   2.2357   2.2532   2.2532   2.4421   2.4421   2.6496   2.6496

          k = 0.1667 0.3228 0.0000 ( 38185 PWs)   bands (ev):

   -17.5554 -17.5549 -17.5548 -17.5543 -13.2611 -13.2582 -13.2492 -13.2466
   -13.2447 -13.2435 -13.2380 -13.2372 -13.2033 -13.2033 -13.2027 -13.2027
   -13.1976 -13.1974 -13.1974 -13.1972 -13.1931 -13.1929 -13.1928 -13.1926
    -8.8604  -8.6993  -8.6323  -8.4767  -8.4713  -8.4703  -8.3857  -8.3596
    -8.2891  -8.2580  -8.2542  -8.2045  -4.8942  -4.5169  -4.4629  -4.3980
    -4.3875  -4.3815  -4.3779  -4.3708  -4.3685  -4.3646  -4.3625  -4.3554
    -4.3545  -4.2993  -4.2467  -3.9204  -0.1542  -0.0624   0.0186   0.1701
     0.5390   0.6824   0.7003   0.8989   1.0870   1.1277   1.1567   1.3713
     1.3718   1.5283   1.5706   1.6599   1.8042   1.8739   1.8768   1.9072
     1.9112   1.9630   1.9721   1.9852   2.0523   2.0827   2.1413   2.1443
     2.1844   2.1989   2.2667   2.3249   2.4356   2.5135   2.6037   2.8500

          k = 0.1667 0.3228 0.1719 ( 38165 PWs)   bands (ev):

   -17.5554 -17.5549 -17.5548 -17.5544 -13.2591 -13.2561 -13.2503 -13.2465
   -13.2464 -13.2448 -13.2380 -13.2375 -13.2032 -13.2032 -13.2028 -13.2028
   -13.1976 -13.1975 -13.1974 -13.1972 -13.1930 -13.1928 -13.1928 -13.1926
    -8.8396  -8.6940  -8.6811  -8.5544  -8.4159  -8.4060  -8.3845  -8.3477
    -8.2955  -8.2705  -8.2526  -8.2194  -4.8293  -4.5101  -4.4708  -4.3962
    -4.3839  -4.3826  -4.3789  -4.3714  -4.3663  -4.3640  -4.3592  -4.3582
    -4.3531  -4.2925  -4.2875  -4.0113   0.0216   0.0670   0.1193   0.1980
     0.5639   0.6339   0.7453   0.8542   1.0918   1.1090   1.1447   1.2715
     1.4058   1.4804   1.5198   1.6147   1.7454   1.7945   1.7988   1.8321
     1.8367   1.9367   1.9840   2.0176   2.0858   2.1363   2.1536   2.1605
     2.1950   2.2283   2.2716   2.3150   2.4271   2.4763   2.5045   2.6521

          k = 0.1667 0.3228-0.3438 ( 38140 PWs)   bands (ev):

   -17.5551 -17.5551 -17.5546 -17.5546 -13.2543 -13.2543 -13.2511 -13.2511
   -13.2461 -13.2461 -13.2378 -13.2378 -13.2030 -13.2030 -13.2030 -13.2030
   -13.1975 -13.1975 -13.1973 -13.1973 -13.1929 -13.1929 -13.1927 -13.1927
    -8.7801  -8.7801  -8.6298  -8.6298  -8.3885  -8.3885  -8.3324  -8.3324
    -8.3059  -8.3059  -8.2436  -8.2436  -4.6662  -4.6662  -4.4078  -4.4078
    -4.3850  -4.3850  -4.3717  -4.3717  -4.3623  -4.3623  -4.3581  -4.3581
    -4.3420  -4.3420  -4.1907  -4.1907   0.0781   0.0781   0.5076   0.5076
     0.6576   0.6576   0.7354   0.7354   0.8624   0.8624   1.1432   1.1432
     1.4489   1.4489   1.5598   1.5598   1.6315   1.6315   1.7895   1.7895
     1.8518   1.8518   2.0192   2.0192   2.1308   2.1308   2.2174   2.2174
     2.2331   2.2331   2.2669   2.2669   2.4143   2.4143   2.5087   2.5087

          k = 0.1667-0.4842 0.0000 ( 38138 PWs)   bands (ev):

   -17.5552 -17.5552 -17.5546 -17.5546 -13.2597 -13.2597 -13.2468 -13.2468
   -13.2422 -13.2422 -13.2405 -13.2405 -13.2033 -13.2033 -13.2027 -13.2027
   -13.1975 -13.1975 -13.1973 -13.1973 -13.1930 -13.1930 -13.1927 -13.1927
    -8.7861  -8.7861  -8.5546  -8.5546  -8.4743  -8.4743  -8.3394  -8.3394
    -8.3074  -8.3074  -8.2251  -8.2251  -4.6967  -4.6967  -4.4075  -4.4075
    -4.3818  -4.3818  -4.3727  -4.3727  -4.3654  -4.3654  -4.3611  -4.3611
    -4.3404  -4.3404  -4.1083  -4.1083  -0.1097  -0.1097   0.2851   0.2851
     0.4538   0.4538   0.9247   0.9247   1.1197   1.1197   1.1216   1.1216
     1.4565   1.4565   1.6517   1.6517   1.7500   1.7500   1.8873   1.8873
     1.9397   1.9397   2.0220   2.0220   2.0333   2.0333   2.1337   2.1337
     2.1485   2.1485   2.2737   2.2737   2.4446   2.4446   2.6844   2.6844

          k = 0.1667-0.4842 0.1719 ( 38162 PWs)   bands (ev):

   -17.5551 -17.5551 -17.5547 -17.5547 -13.2577 -13.2577 -13.2483 -13.2483
   -13.2422 -13.2422 -13.2411 -13.2411 -13.2032 -13.2032 -13.2028 -13.2028
   -13.1975 -13.1975 -13.1973 -13.1973 -13.1929 -13.1929 -13.1927 -13.1927
    -8.7662  -8.7662  -8.6247  -8.6247  -8.4110  -8.4110  -8.3417  -8.3417
    -8.3025  -8.3025  -8.2405  -8.2405  -4.6365  -4.6365  -4.4169  -4.4169
    -4.3820  -4.3820  -4.3749  -4.3749  -4.3660  -4.3660  -4.3588  -4.3588
    -4.3383  -4.3383  -4.1873  -4.1873   0.1012   0.1012   0.3123   0.3123
     0.4280   0.4280   0.9490   0.9490   1.0477   1.0477   1.1171   1.1171
     1.4377   1.4377   1.6077   1.6077   1.7159   1.7159   1.8157   1.8157
     1.8855   1.8855   1.9159   1.9159   2.1142   2.1142   2.1715   2.1715
     2.2092   2.2092   2.2662   2.2662   2.4324   2.4324   2.5178   2.5178

          k = 0.1667-0.4842-0.3438 ( 38180 PWs)   bands (ev):

   -17.5549 -17.5549 -17.5549 -17.5549 -13.2528 -13.2528 -13.2528 -13.2528
   -13.2419 -13.2419 -13.2419 -13.2419 -13.2030 -13.2030 -13.2030 -13.2030
   -13.1974 -13.1974 -13.1974 -13.1974 -13.1928 -13.1928 -13.1928 -13.1928
    -8.7090  -8.7090  -8.7090  -8.7090  -8.3564  -8.3564  -8.3564  -8.3564
    -8.2777  -8.2777  -8.2777  -8.2777  -4.4976  -4.4976  -4.4976  -4.4976
    -4.3796  -4.3796  -4.3796  -4.3796  -4.3594  -4.3594  -4.3594  -4.3594
    -4.3066  -4.3066  -4.3066  -4.3066   0.3388   0.3388   0.3388   0.3388
     0.6760   0.6760   0.6760   0.6760   1.0095   1.0095   1.0095   1.0095
     1.4983   1.4983   1.4983   1.4983   1.6990   1.6990   1.6990   1.6990
     1.8818   1.8818   1.8818   1.8818   2.1823   2.1823   2.1823   2.1823
     2.2501   2.2501   2.2501   2.2501   2.4187   2.4187   2.4187   2.4187

          k = 0.3333 0.0000 0.0000 ( 38180 PWs)   bands (ev):

   -17.5555 -17.5549 -17.5548 -17.5543 -13.2609 -13.2577 -13.2478 -13.2477
   -13.2464 -13.2428 -13.2377 -13.2376 -13.2033 -13.2033 -13.2027 -13.2027
   -13.1976 -13.1974 -13.1974 -13.1972 -13.1931 -13.1928 -13.1928 -13.1926
    -8.8757  -8.6971  -8.6491  -8.4811  -8.4767  -8.4712  -8.3558  -8.3402
    -8.3003  -8.2387  -8.2364  -8.2283  -4.9332  -4.4973  -4.4847  -4.3936
    -4.3891  -4.3862  -4.3817  -4.3803  -4.3743  -4.3661  -4.3567  -4.3539
    -4.3503  -4.2829  -4.2584  -3.8981  -0.1598  -0.0485   0.1724   0.3179
     0.3260   0.4555   0.8388   1.0224   1.1096   1.1403   1.1613   1.2705
     1.3066   1.4766   1.5403   1.6482   1.8398   1.8457   1.8960   1.9171
     1.9426   1.9681   2.0217   2.0240   2.0666   2.0943   2.1218   2.1780
     2.2221   2.2588   2.3215   2.3546   2.3843   2.4155   2.5649   2.7646

          k = 0.3333 0.0000 0.1719 ( 38177 PWs)   bands (ev):

   -17.5554 -17.5550 -17.5547 -17.5544 -13.2588 -13.2555 -13.2485 -13.2478
   -13.2477 -13.2449 -13.2376 -13.2376 -13.2032 -13.2032 -13.2028 -13.2028
   -13.1976 -13.1975 -13.1973 -13.1972 -13.1930 -13.1929 -13.1928 -13.1926
    -8.8548  -8.7100  -8.6787  -8.5576  -8.4153  -8.4014  -8.3544  -8.3415
    -8.3102  -8.2516  -8.2380  -8.2368  -4.8679  -4.5400  -4.4545  -4.3945
    -4.3864  -4.3855  -4.3806  -4.3767  -4.3715  -4.3639  -4.3574  -4.3572
    -4.3476  -4.2969  -4.2701  -3.9894   0.0455   0.1695   0.1908   0.2935
     0.3654   0.4231   0.8661   1.0284   1.0501   1.0831   1.1353   1.2044
     1.3585   1.4960   1.5013   1.5697   1.7265   1.7672   1.8785   1.8883
     1.9270   1.9337   2.0178   2.0262   2.1002   2.1334   2.1372   2.1854
     2.2147   2.2600   2.3027   2.3509   2.3826   2.4084   2.4520   2.5362

          k = 0.3333 0.0000-0.3438 ( 38132 PWs)   bands (ev):

   -17.5552 -17.5552 -17.5546 -17.5546 -13.2536 -13.2536 -13.2504 -13.2504
   -13.2476 -13.2476 -13.2376 -13.2376 -13.2030 -13.2030 -13.2030 -13.2030
   -13.1975 -13.1975 -13.1973 -13.1973 -13.1929 -13.1929 -13.1927 -13.1927
    -8.7953  -8.7953  -8.6299  -8.6299  -8.3537  -8.3537  -8.3472  -8.3472
    -8.3114  -8.3114  -8.2375  -8.2375  -4.7030  -4.7030  -4.4065  -4.4065
    -4.3875  -4.3875  -4.3720  -4.3720  -4.3641  -4.3641  -4.3519  -4.3519
    -4.3403  -4.3403  -4.1706  -4.1706   0.2358   0.2358   0.3337   0.3337
     0.6429   0.6429   0.7291   0.7291   0.9544   0.9544   1.0944   1.0944
     1.4780   1.4780   1.5115   1.5115   1.7134   1.7134   1.7328   1.7328
     1.9544   1.9544   1.9836   1.9836   2.1552   2.1552   2.2234   2.2234
     2.2347   2.2347   2.2804   2.2804   2.3894   2.3894   2.4159   2.4159

          k = 0.3333 0.1614 0.0000 ( 38193 PWs)   bands (ev):

   -17.5554 -17.5549 -17.5548 -17.5543 -13.2611 -13.2582 -13.2492 -13.2466
   -13.2447 -13.2435 -13.2380 -13.2372 -13.2033 -13.2033 -13.2027 -13.2027
   -13.1976 -13.1974 -13.1974 -13.1972 -13.1931 -13.1929 -13.1928 -13.1926
    -8.8613  -8.7005  -8.6311  -8.4777  -8.4725  -8.4663  -8.3871  -8.3636
    -8.2932  -8.2558  -8.2516  -8.2029  -4.8950  -4.5159  -4.4687  -4.3918
    -4.3871  -4.3855  -4.3796  -4.3766  -4.3715  -4.3659  -4.3589  -4.3545
    -4.3504  -4.2942  -4.2359  -3.9186  -0.1571  -0.0647   0.0187   0.1761
     0.5671   0.6413   0.7128   0.8648   1.0612   1.1128   1.1406   1.3626
     1.3734   1.5172   1.5845   1.7334   1.7900   1.8326   1.9100   1.9285
     1.9601   1.9753   1.9983   2.0134   2.0303   2.0709   2.1492   2.1875
     2.1930   2.2078   2.2611   2.3256   2.4086   2.4733   2.5777   2.8083

          k = 0.3333 0.1614 0.1719 ( 38152 PWs)   bands (ev):

   -17.5554 -17.5550 -17.5548 -17.5544 -13.2591 -13.2561 -13.2503 -13.2465
   -13.2464 -13.2448 -13.2380 -13.2375 -13.2032 -13.2032 -13.2028 -13.2028
   -13.1976 -13.1975 -13.1974 -13.1972 -13.1930 -13.1928 -13.1928 -13.1926
    -8.8404  -8.6951  -8.6805  -8.5538  -8.4183  -8.4038  -8.3863  -8.3497
    -8.3000  -8.2642  -8.2529  -8.2180  -4.8310  -4.5179  -4.4705  -4.3938
    -4.3853  -4.3837  -4.3792  -4.3724  -4.3684  -4.3639  -4.3590  -4.3572
    -4.3480  -4.2832  -4.2815  -4.0091   0.0208   0.0635   0.1202   0.1991
     0.5922   0.6382   0.7092   0.8194   1.0612   1.0754   1.1430   1.2806
     1.3867   1.4863   1.5696   1.6054   1.7286   1.7559   1.8509   1.8678
     1.9262   1.9618   2.0135   2.0766   2.0961   2.1141   2.1482   2.1777
     2.1834   2.2182   2.2668   2.3232   2.3970   2.4354   2.4703   2.5953

          k = 0.3333 0.1614-0.3438 ( 38154 PWs)   bands (ev):

   -17.5551 -17.5551 -17.5546 -17.5546 -13.2543 -13.2543 -13.2511 -13.2511
   -13.2461 -13.2461 -13.2378 -13.2378 -13.2030 -13.2030 -13.2030 -13.2030
   -13.1975 -13.1975 -13.1973 -13.1973 -13.1929 -13.1929 -13.1927 -13.1927
    -8.7806  -8.7806  -8.6299  -8.6299  -8.3907  -8.3907  -8.3348  -8.3348
    -8.3025  -8.3025  -8.2427  -8.2427  -4.6705  -4.6705  -4.4117  -4.4117
    -4.3856  -4.3856  -4.3698  -4.3698  -4.3649  -4.3649  -4.3510  -4.3510
    -4.3368  -4.3368  -4.1876  -4.1876   0.0799   0.0799   0.5125   0.5125
     0.6516   0.6516   0.7314   0.7314   0.8195   0.8195   1.1396   1.1396
     1.4538   1.4538   1.5422   1.5422   1.6731   1.6731   1.8218   1.8218
     1.8904   1.8904   2.0558   2.0558   2.1393   2.1393   2.2086   2.2086
     2.2272   2.2272   2.2635   2.2635   2.3745   2.3745   2.4628   2.4628

          k = 0.3333 0.3228 0.0000 ( 38166 PWs)   bands (ev):

   -17.5553 -17.5550 -17.5547 -17.5544 -13.2612 -13.2594 -13.2498 -13.2468
   -13.2441 -13.2409 -13.2393 -13.2372 -13.2033 -13.2033 -13.2027 -13.2027
   -13.1976 -13.1974 -13.1974 -13.1972 -13.1930 -13.1929 -13.1928 -13.1926
    -8.8216  -8.7214  -8.5802  -8.4797  -8.4753  -8.4371  -8.4126  -8.4082
    -8.3418  -8.3016  -8.2184  -8.1905  -4.7960  -4.5745  -4.4342  -4.3915
    -4.3844  -4.3822  -4.3745  -4.3689  -4.3657  -4.3636  -4.3622  -4.3589
    -4.3509  -4.3204  -4.1695  -3.9803  -0.1463  -0.0983  -0.0426   0.1371
     0.3198   0.5186   0.8763   1.0282   1.0514   1.0636   1.1836   1.4347
     1.4767   1.5363   1.6806   1.7619   1.7757   1.8628   1.8660   1.9170
     1.9279   1.9422   1.9938   2.0100   2.0543   2.0703   2.0942   2.1098
     2.1151   2.1726   2.2226   2.2836   2.4563   2.5266   2.6292   2.8376

          k = 0.3333 0.3228 0.1719 ( 38169 PWs)   bands (ev):

   -17.5552 -17.5549 -17.5548 -17.5545 -13.2592 -13.2574 -13.2510 -13.2483
   -13.2439 -13.2418 -13.2391 -13.2378 -13.2032 -13.2032 -13.2028 -13.2028
   -13.1975 -13.1974 -13.1974 -13.1973 -13.1930 -13.1929 -13.1928 -13.1927
    -8.8005  -8.7014  -8.6509  -8.5582  -8.4242  -8.4130  -8.4034  -8.3590
    -8.3429  -8.2917  -8.2340  -8.2085  -4.7354  -4.5252  -4.4650  -4.3980
    -4.3814  -4.3804  -4.3744  -4.3675  -4.3639  -4.3625  -4.3599  -4.3557
    -4.3494  -4.3123  -4.2334  -4.0676  -0.0231   0.0318   0.0881   0.1802
     0.3522   0.4870   0.8987   0.9972   1.0592   1.0649   1.1707   1.2897
     1.4129   1.4832   1.6090   1.6878   1.7173   1.7969   1.8302   1.9041
     1.9178   1.9622   2.0384   2.0483   2.0587   2.0779   2.0915   2.1217
     2.1391   2.2194   2.2330   2.2848   2.4251   2.4601   2.5171   2.6518

          k = 0.3333 0.3228-0.3438 ( 38166 PWs)   bands (ev):

   -17.5550 -17.5550 -17.5547 -17.5547 -13.2547 -13.2547 -13.2526 -13.2526
   -13.2432 -13.2432 -13.2387 -13.2387 -13.2030 -13.2030 -13.2030 -13.2030
   -13.1975 -13.1975 -13.1973 -13.1973 -13.1929 -13.1929 -13.1928 -13.1928
    -8.7401  -8.7401  -8.6437  -8.6437  -8.4136  -8.4136  -8.3615  -8.3615
    -8.2810  -8.2810  -8.2536  -8.2536  -4.5880  -4.5880  -4.4360  -4.4360
    -4.3810  -4.3810  -4.3701  -4.3701  -4.3605  -4.3605  -4.3509  -4.3509
    -4.3218  -4.3218  -4.2339  -4.2339   0.0251   0.0251   0.3750   0.3750
     0.6251   0.6251   0.7383   0.7383   0.9593   0.9593   1.1469   1.1469
     1.4272   1.4272   1.5343   1.5343   1.7479   1.7479   1.8668   1.8668
     1.9249   1.9249   2.0468   2.0468   2.0575   2.0575   2.1586   2.1586
     2.1993   2.1993   2.2798   2.2798   2.3712   2.3712   2.5183   2.5183

          k = 0.3333-0.4842 0.0000 ( 38184 PWs)   bands (ev):

   -17.5552 -17.5552 -17.5546 -17.5546 -13.2606 -13.2606 -13.2488 -13.2488
   -13.2414 -13.2414 -13.2385 -13.2385 -13.2033 -13.2033 -13.2027 -13.2027
   -13.1975 -13.1975 -13.1973 -13.1973 -13.1930 -13.1930 -13.1927 -13.1927
    -8.7679  -8.7679  -8.5071  -8.5071  -8.4784  -8.4784  -8.3890  -8.3890
    -8.3624  -8.3624  -8.1958  -8.1958  -4.6750  -4.6750  -4.4044  -4.4044
    -4.3816  -4.3816  -4.3693  -4.3693  -4.3623  -4.3623  -4.3607  -4.3607
    -4.3442  -4.3442  -4.0735  -4.0735  -0.1254  -0.1254   0.0667   0.0667
     0.2546   0.2546   1.0135   1.0135   1.1096   1.1096   1.3667   1.3667
     1.5012   1.5012   1.7372   1.7372   1.8152   1.8152   1.8620   1.8620
     1.9610   1.9610   1.9901   1.9901   2.0576   2.0576   2.0894   2.0894
     2.1082   2.1082   2.2419   2.2419   2.4976   2.4976   2.7409   2.7409

          k = 0.3333-0.4842 0.1719 ( 38206 PWs)   bands (ev):

   -17.5551 -17.5551 -17.5546 -17.5546 -13.2586 -13.2586 -13.2502 -13.2502
   -13.2412 -13.2412 -13.2393 -13.2393 -13.2032 -13.2032 -13.2028 -13.2028
   -13.1975 -13.1975 -13.1973 -13.1973 -13.1929 -13.1929 -13.1927 -13.1927
    -8.7469  -8.7469  -8.5964  -8.5964  -8.4177  -8.4177  -8.3914  -8.3914
    -8.3338  -8.3338  -8.2138  -8.2138  -4.6192  -4.6192  -4.4203  -4.4203
    -4.3781  -4.3781  -4.3716  -4.3716  -4.3616  -4.3616  -4.3544  -4.3544
    -4.3402  -4.3402  -4.1529  -4.1529   0.0575   0.0575   0.1025   0.1025
     0.2532   0.2532   1.0471   1.0471   1.1106   1.1106   1.2317   1.2317
     1.4369   1.4369   1.6499   1.6499   1.7643   1.7643   1.8973   1.8973
     1.9440   1.9440   1.9954   1.9954   2.0649   2.0649   2.1034   2.1034
     2.1569   2.1569   2.2549   2.2549   2.4771   2.4771   2.5601   2.5601

          k = 0.3333-0.4842-0.3438 ( 38156 PWs)   bands (ev):

   -17.5549 -17.5549 -17.5549 -17.5549 -13.2541 -13.2541 -13.2541 -13.2541
   -13.2405 -13.2405 -13.2405 -13.2405 -13.2030 -13.2030 -13.2030 -13.2030
   -13.1974 -13.1974 -13.1974 -13.1974 -13.1928 -13.1928 -13.1928 -13.1928
    -8.6866  -8.6866  -8.6866  -8.6866  -8.3977  -8.3977  -8.3977  -8.3977
    -8.2655  -8.2655  -8.2655  -8.2655  -4.4959  -4.4959  -4.4959  -4.4959
    -4.3749  -4.3749  -4.3749  -4.3749  -4.3543  -4.3543  -4.3543  -4.3543
    -4.2871  -4.2871  -4.2871  -4.2871   0.1348   0.1348   0.1348   0.1348
     0.6805   0.6805   0.6805   0.6805   1.1132   1.1132   1.1132   1.1132
     1.4713   1.4713   1.4713   1.4713   1.8284   1.8284   1.8284   1.8284
     1.9698   1.9698   1.9698   1.9698   2.1044   2.1044   2.1044   2.1044
     2.2352   2.2352   2.2352   2.2352   2.4466   2.4466   2.4466   2.4466

          k =-0.5000 0.0000 0.0000 ( 38160 PWs)   bands (ev):

   -17.5552 -17.5552 -17.5545 -17.5545 -13.2593 -13.2593 -13.2448 -13.2448
   -13.2427 -13.2427 -13.2425 -13.2425 -13.2033 -13.2033 -13.2027 -13.2027
   -13.1975 -13.1975 -13.1973 -13.1973 -13.1930 -13.1930 -13.1927 -13.1927
    -8.7964  -8.7964  -8.5686  -8.5686  -8.4746  -8.4746  -8.3064  -8.3064
    -8.2899  -8.2899  -8.2461  -8.2461  -4.7089  -4.7089  -4.4149  -4.4149
    -4.3818  -4.3818  -4.3779  -4.3779  -4.3675  -4.3675  -4.3569  -4.3569
    -4.3293  -4.3293  -4.1163  -4.1163  -0.1078  -0.1078   0.4810   0.4810
     0.6679   0.6679   0.7315   0.7315   0.9110   0.9110   1.1102   1.1102
     1.3944   1.3944   1.6506   1.6506   1.7586   1.7586   1.9078   1.9078
     1.9080   1.9080   2.0503   2.0503   2.0595   2.0595   2.1847   2.1847
     2.2512   2.2512   2.3008   2.3008   2.3247   2.3247   2.6086   2.6086

          k =-0.5000 0.0000 0.1719 ( 38192 PWs)   bands (ev):

   -17.5551 -17.5551 -17.5546 -17.5546 -13.2571 -13.2571 -13.2469 -13.2469
   -13.2427 -13.2427 -13.2426 -13.2426 -13.2032 -13.2032 -13.2028 -13.2028
   -13.1975 -13.1975 -13.1973 -13.1973 -13.1929 -13.1929 -13.1927 -13.1927
    -8.7767  -8.7767  -8.6357  -8.6357  -8.4097  -8.4097  -8.3085  -8.3085
    -8.2905  -8.2905  -8.2606  -8.2606  -4.6493  -4.6493  -4.4261  -4.4261
    -4.3819  -4.3819  -4.3768  -4.3768  -4.3699  -4.3699  -4.3553  -4.3553
    -4.3273  -4.3273  -4.1933  -4.1933   0.1058   0.1058   0.5013   0.5013
     0.6393   0.6393   0.7426   0.7426   0.8687   0.8687   1.0728   1.0728
     1.4301   1.4301   1.6551   1.6551   1.6773   1.6773   1.8076   1.8076
     1.8967   1.8967   1.9728   1.9728   2.1268   2.1268   2.1917   2.1917
     2.2533   2.2533   2.3063   2.3063   2.3290   2.3290   2.4383   2.4383

          k =-0.5000 0.0000-0.3438 ( 38180 PWs)   bands (ev):

   -17.5550 -17.5550 -17.5548 -17.5548 -13.2520 -13.2520 -13.2520 -13.2520
   -13.2427 -13.2427 -13.2427 -13.2427 -13.2030 -13.2030 -13.2030 -13.2030
   -13.1974 -13.1974 -13.1974 -13.1974 -13.1928 -13.1928 -13.1928 -13.1928
    -8.7268  -8.7268  -8.7123  -8.7123  -8.3428  -8.3428  -8.3261  -8.3261
    -8.2962  -8.2962  -8.2772  -8.2772  -4.5234  -4.5234  -4.4963  -4.4963
    -4.3827  -4.3827  -4.3767  -4.3767  -4.3687  -4.3687  -4.3485  -4.3485
    -4.3059  -4.3059  -4.3031  -4.3031   0.5319   0.5319   0.5675   0.5675
     0.5941   0.5941   0.6016   0.6016   0.8555   0.8555   0.8794   0.8794
     1.5173   1.5173   1.6084   1.6084   1.6406   1.6406   1.7036   1.7036
     1.8408   1.8408   1.8858   1.8858   2.1996   2.1996   2.2087   2.2087
     2.2441   2.2441   2.3195   2.3195   2.3355   2.3355   2.3449   2.3449

          k =-0.5000 0.1614 0.0000 ( 38140 PWs)   bands (ev):

   -17.5552 -17.5552 -17.5545 -17.5545 -13.2597 -13.2597 -13.2468 -13.2468
   -13.2422 -13.2422 -13.2405 -13.2405 -13.2033 -13.2033 -13.2027 -13.2027
   -13.1975 -13.1975 -13.1973 -13.1973 -13.1930 -13.1930 -13.1927 -13.1927
    -8.7877  -8.7877  -8.5519  -8.5519  -8.4757  -8.4757  -8.3416  -8.3416
    -8.3103  -8.3103  -8.2211  -8.2211  -4.6977  -4.6977  -4.4122  -4.4122
    -4.3813  -4.3813  -4.3746  -4.3746  -4.3674  -4.3674  -4.3591  -4.3591
    -4.3319  -4.3319  -4.1010  -4.1010  -0.1132  -0.1132   0.2818   0.2818
     0.4619   0.4619   0.9001   0.9001   1.0829   1.0829   1.1256   1.1256
     1.4340   1.4340   1.6767   1.6767   1.8044   1.8044   1.9026   1.9026
     1.9306   1.9306   2.0454   2.0454   2.0577   2.0577   2.1421   2.1421
     2.1983   2.1983   2.2506   2.2506   2.3929   2.3929   2.6390   2.6390

          k =-0.5000 0.1614 0.1719 ( 38172 PWs)   bands (ev):

   -17.5551 -17.5551 -17.5546 -17.5546 -13.2577 -13.2577 -13.2483 -13.2483
   -13.2422 -13.2422 -13.2411 -13.2411 -13.2032 -13.2032 -13.2028 -13.2028
   -13.1975 -13.1975 -13.1973 -13.1973 -13.1929 -13.1929 -13.1927 -13.1927
    -8.7676  -8.7676  -8.6238  -8.6238  -8.4120  -8.4120  -8.3434  -8.3434
    -8.3045  -8.3045  -8.2366  -8.2366  -4.6395  -4.6395  -4.4249  -4.4249
    -4.3810  -4.3810  -4.3741  -4.3741  -4.3681  -4.3681  -4.3563  -4.3563
    -4.3294  -4.3294  -4.1786  -4.1786   0.0964   0.0964   0.3092   0.3092
     0.4338   0.4338   0.9163   0.9163   1.0421   1.0421   1.0921   1.0921
     1.4173   1.4173   1.6517   1.6517   1.6982   1.6982   1.8645   1.8645
     1.9298   1.9298   2.0056   2.0056   2.1073   2.1073   2.1598   2.1598
     2.2230   2.2230   2.2533   2.2533   2.3798   2.3798   2.4549   2.4549

          k =-0.5000 0.1614-0.3438 ( 38156 PWs)   bands (ev):

   -17.5550 -17.5550 -17.5548 -17.5548 -13.2528 -13.2528 -13.2528 -13.2528
   -13.2419 -13.2419 -13.2418 -13.2418 -13.2030 -13.2030 -13.2030 -13.2030
   -13.1974 -13.1974 -13.1974 -13.1974 -13.1928 -13.1928 -13.1928 -13.1928
    -8.7164  -8.7164  -8.7026  -8.7026  -8.3678  -8.3678  -8.3487  -8.3487
    -8.2826  -8.2826  -8.2694  -8.2694  -4.5179  -4.5179  -4.4938  -4.4938
    -4.3815  -4.3815  -4.3743  -4.3743  -4.3654  -4.3654  -4.3478  -4.3478
    -4.3002  -4.3002  -4.2966  -4.2966   0.3318   0.3318   0.3528   0.3528
     0.6091   0.6091   0.7093   0.7093   0.9692   0.9692   1.0083   1.0083
     1.4623   1.4623   1.5292   1.5292   1.7215   1.7215   1.7636   1.7636
     1.9140   1.9140   1.9722   1.9722   2.1520   2.1520   2.1945   2.1945
     2.2289   2.2289   2.2600   2.2600   2.3510   2.3510   2.3677   2.3677

          k =-0.5000 0.3228 0.0000 ( 38196 PWs)   bands (ev):

   -17.5552 -17.5552 -17.5546 -17.5546 -13.2606 -13.2606 -13.2488 -13.2488
   -13.2414 -13.2414 -13.2385 -13.2385 -13.2033 -13.2033 -13.2027 -13.2027
   -13.1975 -13.1975 -13.1973 -13.1973 -13.1930 -13.1930 -13.1927 -13.1927
    -8.7685  -8.7685  -8.5056  -8.5056  -8.4790  -8.4790  -8.3890  -8.3890
    -8.3640  -8.3640  -8.1949  -8.1949  -4.6754  -4.6754  -4.4068  -4.4068
    -4.3806  -4.3806  -4.3667  -4.3667  -4.3657  -4.3657  -4.3622  -4.3622
    -4.3395  -4.3395  -4.0714  -4.0714  -0.1267  -0.1267   0.0658   0.0658
     0.2571   0.2571   0.9951   0.9951   1.1076   1.1076   1.3728   1.3728
     1.4970   1.4970   1.7249   1.7249   1.8284   1.8284   1.9169   1.9169
     1.9229   1.9229   2.0308   2.0308   2.0364   2.0364   2.0824   2.0824
     2.1063   2.1063   2.2573   2.2573   2.4828   2.4828   2.7286   2.7286

          k =-0.5000 0.3228 0.1719 ( 38164 PWs)   bands (ev):

   -17.5551 -17.5551 -17.5546 -17.5546 -13.2586 -13.2586 -13.2502 -13.2502
   -13.2412 -13.2412 -13.2393 -13.2393 -13.2032 -13.2032 -13.2028 -13.2028
   -13.1975 -13.1975 -13.1973 -13.1973 -13.1929 -13.1929 -13.1927 -13.1927
    -8.7475  -8.7475  -8.5960  -8.5960  -8.4193  -8.4193  -8.3899  -8.3899
    -8.3349  -8.3349  -8.2131  -8.2131  -4.6201  -4.6201  -4.4228  -4.4228
    -4.3785  -4.3785  -4.3703  -4.3703  -4.3616  -4.3616  -4.3561  -4.3561
    -4.3356  -4.3356  -4.1504  -4.1504   0.0562   0.0562   0.1015   0.1015
     0.2544   0.2544   1.0213   1.0213   1.1084   1.1084   1.2478   1.2478
     1.4254   1.4254   1.6598   1.6598   1.7561   1.7561   1.9262   1.9262
     1.9826   1.9826   2.0161   2.0161   2.0455   2.0455   2.0903   2.0903
     2.1400   2.1400   2.2643   2.2643   2.4643   2.4643   2.5448   2.5448

          k =-0.5000 0.3228-0.3438 ( 38152 PWs)   bands (ev):

   -17.5549 -17.5549 -17.5548 -17.5548 -13.2541 -13.2541 -13.2541 -13.2541
   -13.2405 -13.2405 -13.2405 -13.2405 -13.2030 -13.2030 -13.2030 -13.2030
   -13.1974 -13.1974 -13.1974 -13.1974 -13.1928 -13.1928 -13.1928 -13.1928
    -8.6919  -8.6919  -8.6816  -8.6816  -8.4054  -8.4054  -8.3906  -8.3906
    -8.2683  -8.2683  -8.2623  -8.2623  -4.5055  -4.5055  -4.4910  -4.4910
    -4.3781  -4.3781  -4.3713  -4.3713  -4.3590  -4.3590  -4.3481  -4.3481
    -4.2859  -4.2859  -4.2827  -4.2827   0.1291   0.1291   0.1415   0.1415
     0.6388   0.6388   0.7117   0.7117   1.1057   1.1057   1.1099   1.1099
     1.4364   1.4364   1.5104   1.5104   1.8120   1.8120   1.8806   1.8806
     1.9839   1.9839   2.0209   2.0209   2.0544   2.0544   2.1026   2.1026
     2.1884   2.1884   2.2734   2.2734   2.4248   2.4248   2.4412   2.4412

          k =-0.5000-0.4842 0.0000 ( 38168 PWs)   bands (ev):

   -17.5552 -17.5552 -17.5546 -17.5546 -13.2610 -13.2610 -13.2496 -13.2496
   -13.2410 -13.2410 -13.2377 -13.2377 -13.2033 -13.2033 -13.2027 -13.2027
   -13.1975 -13.1975 -13.1973 -13.1973 -13.1930 -13.1930 -13.1927 -13.1927
    -8.7577  -8.7577  -8.4817  -8.4817  -8.4524  -8.4524  -8.4208  -8.4208
    -8.4090  -8.4090  -8.1857  -8.1857  -4.6642  -4.6642  -4.4043  -4.4043
    -4.3803  -4.3803  -4.3664  -4.3664  -4.3630  -4.3630  -4.3567  -4.3567
    -4.3477  -4.3477  -4.0569  -4.0569  -0.1358  -0.1358  -0.0161  -0.0161
     0.1844   0.1844   0.9811   0.9811   1.1639   1.1639   1.5095   1.5095
     1.5324   1.5324   1.7438   1.7438   1.7558   1.7558   1.8965   1.8965
     1.9437   1.9437   1.9893   1.9893   2.0448   2.0448   2.0517   2.0517
     2.0641   2.0641   2.3121   2.3121   2.5305   2.5305   2.7910   2.7910

          k =-0.5000-0.4842 0.1719 ( 38168 PWs)   bands (ev):

   -17.5551 -17.5551 -17.5546 -17.5546 -13.2591 -13.2591 -13.2509 -13.2509
   -13.2408 -13.2408 -13.2386 -13.2386 -13.2032 -13.2032 -13.2028 -13.2028
   -13.1975 -13.1975 -13.1973 -13.1973 -13.1929 -13.1929 -13.1927 -13.1927
    -8.7359  -8.7359  -8.5790  -8.5790  -8.4199  -8.4199  -8.4166  -8.4166
    -8.3503  -8.3503  -8.2050  -8.2050  -4.6106  -4.6106  -4.4221  -4.4221
    -4.3762  -4.3762  -4.3702  -4.3702  -4.3592  -4.3592  -4.3480  -4.3480
    -4.3442  -4.3442  -4.1366  -4.1366   0.0052   0.0052   0.0387   0.0387
     0.2069   0.2069   1.0265   1.0265   1.1431   1.1431   1.2906   1.2906
     1.4966   1.4966   1.6487   1.6487   1.7955   1.7955   1.9144   1.9144
     1.9708   1.9708   1.9739   1.9739   2.0441   2.0441   2.0551   2.0551
     2.1114   2.1114   2.3065   2.3065   2.5112   2.5112   2.6202   2.6202

          k =-0.5000-0.4842-0.3438 ( 38200 PWs)   bands (ev):

   -17.5549 -17.5549 -17.5549 -17.5549 -13.2547 -13.2547 -13.2547 -13.2547
   -13.2400 -13.2400 -13.2400 -13.2400 -13.2030 -13.2030 -13.2030 -13.2030
   -13.1974 -13.1974 -13.1974 -13.1974 -13.1928 -13.1928 -13.1928 -13.1928
    -8.6735  -8.6735  -8.6735  -8.6735  -8.4178  -8.4178  -8.4178  -8.4178
    -8.2618  -8.2618  -8.2618  -8.2618  -4.4947  -4.4947  -4.4947  -4.4947
    -4.3734  -4.3734  -4.3734  -4.3734  -4.3522  -4.3522  -4.3522  -4.3522
    -4.2764  -4.2764  -4.2764  -4.2764   0.0568   0.0568   0.0568   0.0568
     0.6795   0.6795   0.6795   0.6795   1.1289   1.1289   1.1289   1.1289
     1.5053   1.5053   1.5053   1.5053   1.9073   1.9073   1.9073   1.9073
     1.9529   1.9529   1.9529   1.9529   2.0258   2.0258   2.0258   2.0258
     2.2518   2.2518   2.2518   2.2518   2.5008   2.5008   2.5008   2.5008

     highest occupied level (ev):     3.2825

!    total energy              =   -8165.84418094 Ry
     estimated scf accuracy    <       0.00000006 Ry

     The total energy is the sum of the following terms:
     one-electron contribution =    -334.82308592 Ry
     hartree contribution      =     254.94913362 Ry
     xc contribution           =    -792.71143176 Ry
     ewald contribution        =    -643.62751295 Ry
     one-center paw contrib.   =   -6649.63128393 Ry

     convergence has been achieved in  13 iterations

     Forces acting on atoms (cartesian axes, Ry/au):

     atom    1 type  1   force =    -0.00327639   -0.00498594    0.00000000
     atom    2 type  1   force =     0.00327639    0.00498594   -0.00000000
     atom    3 type  1   force =    -0.00327639    0.00498594    0.00000000
     atom    4 type  1   force =     0.00327639   -0.00498594    0.00000000
     atom    5 type  2   force =     0.00000000    0.00000000    0.00000000
     atom    6 type  2   force =    -0.00000000   -0.00000000    0.00000000
     atom    7 type  2   force =     0.00000000    0.00000000    0.00000000
     atom    8 type  2   force =     0.00000000    0.00000000   -0.00000000
     atom    9 type  3   force =    -0.00117574    0.00224828    0.00000000
     atom   10 type  3   force =     0.00117574   -0.00224828    0.00000000
     atom   11 type  3   force =    -0.00117574   -0.00224828   -0.00000000
     atom   12 type  3   force =     0.00117574    0.00224828    0.00000000
     atom   13 type  3   force =    -0.00366106   -0.00464069    0.00152789
     atom   14 type  3   force =     0.00366106    0.00464069    0.00152789
     atom   15 type  3   force =    -0.00366106    0.00464069   -0.00152789
     atom   16 type  3   force =     0.00366106   -0.00464069   -0.00152789
     atom   17 type  3   force =     0.00366106    0.00464069   -0.00152789
     atom   18 type  3   force =    -0.00366106   -0.00464069   -0.00152789
     atom   19 type  3   force =     0.00366106   -0.00464069    0.00152789
     atom   20 type  3   force =    -0.00366106    0.00464069    0.00152789

     Total force =     0.021594     Total SCF correction =     0.000034


     Computing stress (Cartesian axis) and pressure

          total   stress  (Ry/bohr**3)                   (kbar)     P=       -1.63
   0.00001011   0.00000000   0.00000000            1.49        0.00        0.00
   0.00000000  -0.00003445   0.00000000            0.00       -5.07        0.00
   0.00000000   0.00000000  -0.00000892            0.00        0.00       -1.31


     Writing all to output data dir ./tmp/conv_k664.save/ :
     XML data file, charge density, pseudopotentials, collected wavefunctions

     init_run     :    201.72s CPU    204.40s WALL (       1 calls)
     electrons    :   6886.18s CPU   6951.21s WALL (       1 calls)
     forces       :     98.12s CPU     99.04s WALL (       1 calls)
     stress       :    333.32s CPU    335.34s WALL (       1 calls)

     Called by init_run:
     wfcinit      :    196.32s CPU    197.84s WALL (       1 calls)
     potinit      :      1.71s CPU      1.79s WALL (       1 calls)
     hinit0       :      0.60s CPU      0.64s WALL (       1 calls)

     Called by electrons:
     c_bands      :   6298.23s CPU   6336.96s WALL (      14 calls)
     sum_band     :    543.02s CPU    560.13s WALL (      14 calls)
     v_of_rho     :      4.32s CPU      4.54s WALL (      14 calls)
     newd         :     30.63s CPU     40.57s WALL (      14 calls)
     PAW_pot      :     12.47s CPU     12.47s WALL (      14 calls)
     mix_rho      :      0.87s CPU      0.90s WALL (      14 calls)

     Called by c_bands:
     init_us_2    :     28.71s CPU     28.86s WALL (    1488 calls)
     cegterg      :   6241.73s CPU   6280.24s WALL (     672 calls)

     Called by *egterg:
     cdiaghg      :     71.28s CPU     71.30s WALL (    2982 calls)
     h_psi        :   2735.15s CPU   2770.57s WALL (    3078 calls)
     s_psi        :    936.46s CPU    936.68s WALL (    3078 calls)
     g_psi        :     10.36s CPU     10.39s WALL (    2358 calls)

     Called by h_psi:
     h_psi:calbec :    976.94s CPU    977.65s WALL (    3078 calls)
     vloc_psi     :    814.76s CPU    847.90s WALL (    3078 calls)
     add_vuspsi   :    936.97s CPU    937.11s WALL (    3078 calls)

     General routines
     calbec       :   1698.48s CPU   1699.62s WALL (    4566 calls)
     fft          :      4.15s CPU      4.44s WALL (     206 calls)
     ffts         :      0.43s CPU      0.45s WALL (      28 calls)
     fftw         :    848.75s CPU    882.93s WALL (  406870 calls)
     interpolate  :      0.68s CPU      0.70s WALL (      14 calls)

     Parallel routines

     PWSCF        :      2h 5m CPU      2h 6m WALL


   This run was terminated on:  21:14:35   4Oct2026            

=------------------------------------------------------------------------------=
   JOB DONE.
=------------------------------------------------------------------------------=
